      -----------------------------------------------------------      
     |                   =====================                   |     
     |                           x T B                           |     
     |                   =====================                   |     
     |                         S. Grimme                         |     
     |          Mulliken Center for Theoretical Chemistry        |     
     |                    University of Bonn                     |     
      -----------------------------------------------------------      

   * xtb version 6.7.1pre (5071a88) compiled by 'Marcel@Raven' on 2024-07-23

   xtb is free software: you can redistribute it and/or modify it under
   the terms of the GNU Lesser General Public License as published by
   the Free Software Foundation, either version 3 of the License, or
   (at your option) any later version.
   
   xtb is distributed in the hope that it will be useful,
   but WITHOUT ANY WARRANTY; without even the implied warranty of
   MERCHANTABILITY or FITNESS FOR A PARTICULAR PURPOSE.  See the
   GNU Lesser General Public License for more details.
   
   Cite this work as:
   * C. Bannwarth, E. Caldeweyher, S. Ehlert, A. Hansen, P. Pracht,
     J. Seibert, S. Spicher, S. Grimme, WIREs Comput. Mol. Sci., 2020, 11,
     e01493. DOI: 10.1002/wcms.1493
   
   for GFN2-xTB:
   * C. Bannwarth, S. Ehlert and S. Grimme., J. Chem. Theory Comput., 2019,
     15, 1652-1671. DOI: 10.1021/acs.jctc.8b01176
   for GFN1-xTB:
   * S. Grimme, C. Bannwarth, P. Shushkov, J. Chem. Theory Comput., 2017,
     13, 1989-2009. DOI: 10.1021/acs.jctc.7b00118
   for GFN0-xTB:
   * P. Pracht, E. Caldeweyher, S. Ehlert, S. Grimme, ChemRxiv, 2019, preprint.
     DOI: 10.26434/chemrxiv.8326202.v1
   for GFN-FF:
   * S. Spicher and S. Grimme, Angew. Chem. Int. Ed., 2020, 59, 15665-15673.
     DOI: 10.1002/anie.202004239
   
   for ALPB and GBSA implicit solvation:
   * S. Ehlert, M. Stahn, S. Spicher, S. Grimme, J. Chem. Theory Comput.,
     2021, 17, 4250-4261. DOI: 10.1021/acs.jctc.1c00471
   
   for ddCOSMO and CPCM-X implicit solvation:
   * M. Stahn, S. Ehlert, S. Grimme, J. Phys. Chem. A,
     2023, XX, XXXX-XXXX. DOI: 10.1021/acs.jpca.3c04382
   
   for DFT-D4:
   * E. Caldeweyher, C. Bannwarth and S. Grimme, J. Chem. Phys., 2017,
     147, 034112. DOI: 10.1063/1.4993215
   * E. Caldeweyher, S. Ehlert, A. Hansen, H. Neugebauer, S. Spicher,
     C. Bannwarth and S. Grimme, J. Chem. Phys., 2019, 150, 154122.
     DOI: 10.1063/1.5090222
   * E. Caldeweyher, J.-M. Mewes, S. Ehlert and S. Grimme, Phys. Chem. Chem. Phys.
     2020, 22, 8499-8512. DOI: 10.1039/D0CP00502A
   
   for sTDA-xTB:
   * S. Grimme and C. Bannwarth, J. Chem. Phys., 2016, 145, 054103.
     DOI: 10.1063/1.4959605
   
   in the mass-spec context:
   * V. Asgeirsson, C. Bauer and S. Grimme, Chem. Sci., 2017, 8, 4879.
     DOI: 10.1039/c7sc00601b
   * J. Koopman and S. Grimme, ACS Omega 2019, 4, 12, 15120-15133.
     DOI: 10.1021/acsomega.9b02011
   
   for metadynamics refer to:
   * S. Grimme, J. Chem. Theory Comput., 2019, 155, 2847-2862
     DOI: 10.1021/acs.jctc.9b00143
   
   for SPH calculations refer to:
   * S. Spicher and S. Grimme, J. Chem. Theory Comput., 2021, 17, 1701-1714
     DOI: 10.1021/acs.jctc.0c01306
   
   for ONIOM refer to:
   * C. Plett, A. Katbashev, S. Ehlert, S. Grimme, M. Bursch,
     Phys. Chem. Chem. Phys., 2023, 25, 17860-17868. DOI: 10.1039/D3CP02178E
   
   for DIPRO refer to:
   * J. Kohn, N. Gildemeister, S. Grimme, D. Fazzi, A. Hansen,
     J. Chem. Phys., 2023, just accepted.
   
   for PTB refer to:
   * S. Grimme, M. Mueller, A. Hansen, J. Chem. Phys., 2023, 158, 124111.
     DOI: 10.1063/5.0137838
   
   with help from (in alphabetical order)
   P. Atkinson, C. Bannwarth, F. Bohle, G. Brandenburg, E. Caldeweyher
   M. Checinski, S. Dohm, S. Ehlert, S. Ehrlich, I. Gerasimov, C. Hölzer
   A. Katbashev, J. Kohn, J. Koopman, C. Lavigne, S. Lehtola, F. März, M. Müller,
   F. Musil, H. Neugebauer, J. Pisarek, C. Plett, P. Pracht, F. Pultar,
   J. Seibert, P. Shushkov, S. Spicher, M. Stahn, M. Steiner, T. Strunk,
   J. Stückrath, T. Rose, and J. Unsleber
   
 * started run on 2026/09/17 at 00:40:24.012     
   ID    Z sym.   atoms
    1    6 C      1, 2, 4-6
    2    8 O      3, 7
    3    1 H      8-13

           -------------------------------------------------
          |                Calculation Setup                |
           -------------------------------------------------

          program call               : C:\ORCA_6.1.1\xtb-6.7.1pre\xtb.exe input.xyz --gfn 2 --chrg 0 --uhf 0 --opt tight --json
          coordinate file            : input.xyz
          omp threads                :                     4


           -------------------------------------------------
          |                 G F N 2 - x T B                 |
           -------------------------------------------------

        Reference                      10.1021/acs.jctc.8b01176
      * Hamiltonian:
        H0-scaling (s, p, d)           1.850000    2.230000    2.230000
        zeta-weighting                 0.500000
      * Dispersion:
        s8                             2.700000
        a1                             0.520000
        a2                             5.000000
        s9                             5.000000
      * Repulsion:
        kExp                           1.500000    1.000000
        rExp                           1.000000
      * Coulomb:
        alpha                          2.000000
        third order                    shell-resolved
        anisotropic                    true
        a3                             3.000000
        a5                             4.000000
        cn-shift                       1.200000
        cn-exp                         4.000000
        max-rad                        5.000000


          ...................................................
          :                      SETUP                      :
          :.................................................:
          :  # basis functions                  34          :
          :  # atomic orbitals                  34          :
          :  # shells                           20          :
          :  # electrons                        38          :
          :  max. iterations                   250          :
          :  Hamiltonian                  GFN2-xTB          :
          :  restarted?                      false          :
          :  GBSA solvation                  false          :
          :  PC potential                    false          :
          :  electronic temp.          300.0000000     K    :
          :  accuracy                    1.0000000          :
          :  -> integral cutoff          0.2500000E+02      :
          :  -> integral neglect         0.1000000E-07      :
          :  -> SCF convergence          0.1000000E-05 Eh   :
          :  -> wf. convergence          0.1000000E-03 e    :
          :  Broyden damping             0.4000000          :
          :  net charge                          0          :
          :  unpaired electrons                  0          :
          ...................................................

 iter      E             dE          RMSdq      gap      omega  full diag
   1    -22.0977986 -0.220978E+02  0.426E+00    4.65       0.0  T
   2    -22.1127281 -0.149295E-01  0.269E+00    4.55       1.0  T
   3    -22.1028074  0.992065E-02  0.122E+00    4.58       1.0  T
   4    -22.1173983 -0.145909E-01  0.301E-01    4.50       1.0  T
   5    -22.1178441 -0.445819E-03  0.738E-02    4.51       1.0  T
   6    -22.1178529 -0.874388E-05  0.406E-02    4.51       1.0  T
   7    -22.1178536 -0.691891E-06  0.219E-02    4.51       1.3  T
   8    -22.1178565 -0.289762E-05  0.528E-03    4.51       5.3  T
   9    -22.1178565 -0.765032E-07  0.215E-03    4.51      12.9  T
  10    -22.1178565 -0.424793E-08  0.924E-04    4.51      30.0  T
  11    -22.1178565 -0.298190E-08  0.198E-04    4.51     139.9  T

   *** convergence criteria satisfied after 11 iterations ***

         #    Occupation            Energy/Eh            Energy/eV
      -------------------------------------------------------------
         1        2.0000           -0.7434051             -20.2291
       ...           ...                  ...                  ...
        13        2.0000           -0.4853250             -13.2064
        14        2.0000           -0.4794917             -13.0476
        15        2.0000           -0.4704605             -12.8019
        16        2.0000           -0.4648167             -12.6483
        17        2.0000           -0.4314181             -11.7395
        18        2.0000           -0.4183666             -11.3843
        19        2.0000           -0.3920867             -10.6692 (HOMO)
        20                         -0.2263878              -6.1603 (LUMO)
        21                         -0.1701621              -4.6303
        22                          0.0379860               1.0337
        23                          0.0745104               2.0275
        24                          0.0927297               2.5233
       ...                                ...                  ...
        34                          0.6655872              18.1116
      -------------------------------------------------------------
                  HL-Gap            0.1656989 Eh            4.5089 eV
             Fermi-level           -0.3092373 Eh           -8.4148 eV

 SCC (total)                   0 d,  0 h,  0 min,  0.005 sec
 SCC setup                      ...        0 min,  0.000 sec (  0.000%)
 Dispersion                     ...        0 min,  0.000 sec (  0.000%)
 classical contributions        ...        0 min,  0.000 sec (  0.000%)
 integral evaluation            ...        0 min,  0.001 sec ( 19.999%)
 iterations                     ...        0 min,  0.003 sec ( 60.002%)
 molecular gradient             ...        0 min,  0.001 sec ( 19.999%)
 printout                       ...        0 min,  0.000 sec (  0.000%)

         :::::::::::::::::::::::::::::::::::::::::::::::::::::
         ::                     SUMMARY                     ::
         :::::::::::::::::::::::::::::::::::::::::::::::::::::
         :: total energy             -21.868420779865 Eh    ::
         :: gradient norm              0.040821350404 Eh/a0 ::
         :: HOMO-LUMO gap              4.508896424943 eV    ::
         ::.................................................::
         :: SCC energy               -22.117846075705 Eh    ::
         :: -> isotropic ES            0.032814505326 Eh    ::
         :: -> anisotropic ES          0.002010482184 Eh    ::
         :: -> anisotropic XC          0.004143430000 Eh    ::
         :: -> dispersion             -0.008047855379 Eh    ::
         :: repulsion energy           0.249425295840 Eh    ::
         :: add. restraining           0.000000000000 Eh    ::
         :: total charge              -0.000000000000 e     ::
         :::::::::::::::::::::::::::::::::::::::::::::::::::::

      ----------------------------------------------------------- 
     |                   =====================                   |
     |                        A N C O P T                        |
     |                   =====================                   |
     |               Approximate Normal Coordinate               |
     |                Rational Function Optimizer                |
      ----------------------------------------------------------- 
      ----------------------------------------------------------- 
     |                   =====================                   |
     |                        A N C O P T                        |
     |                   =====================                   |
     |               Approximate Normal Coordinate               |
     |                Rational Function Optimizer                |
      ----------------------------------------------------------- 

          ...................................................
          :                      SETUP                      :
          :.................................................:
          :   optimization level             tight          :
          :   max. optcycles                   200          :
          :   ANC micro-cycles                  20          :
          :   degrees of freedom                33          :
          :.................................................:
          :   RF solver                   davidson          :
          :   write xtbopt.log                true          :
          :   linear?                        false          :
          :   energy convergence         0.1000000E-05 Eh   :
          :   grad. convergence          0.8000000E-03 Eh/α :
          :   maxmium RF displ.          1.0000000          :
          :   Hlow (freq-cutoff)         0.1000000E-01      :
          :   Hmax (freq-cutoff)         5.0000000          :
          :   S6 in model hess.         20.0000000          :
          ...................................................

generating ANC from exact Hessian ...
Using Lindh-Hessian (1995)
 Shifting diagonal of input Hessian by   4.324396996808754E-003
 Lowest  eigenvalues of input Hessian
    0.000000    0.000000    0.000000    0.000000    0.000000    0.000000
    0.010000    0.012000    0.018812    0.026103    0.035645    0.048401
    0.061349    0.074214    0.083741    0.099129    0.102490    0.115521
 Highest eigenvalues
    1.413997    1.452075    1.749739    1.768545    1.894275    1.929316
 

........................................................................
.............................. CYCLE    1 ..............................
........................................................................

 iter      E             dE          RMSdq      gap      omega  full diag
   1    -22.1178565 -0.221179E+02  0.594E-05    4.51       0.0  T
   2    -22.1178565 -0.314770E-11  0.367E-05    4.51     756.5  T
   3    -22.1178565  0.106937E-11  0.202E-05    4.51    1373.5  T
     SCC iter.                  ...        0 min,  0.000 sec
     gradient                   ...        0 min,  0.001 sec
 * total energy  :   -21.8684208 Eh     change       -0.4855139E-10 Eh
   gradient norm :     0.0408222 Eh/α   predicted     0.0000000E+00 (-100.00%)
   displ. norm   :     0.2268310 α      lambda       -0.3629954E-02
   maximum displ.:     0.1515023 α      in ANC's #3, #2, #6, ...

........................................................................
.............................. CYCLE    2 ..............................
........................................................................

 iter      E             dE          RMSdq      gap      omega  full diag
   1    -22.1314700 -0.221315E+02  0.170E-01    4.68       0.0  T
   2    -22.1314881 -0.180518E-04  0.102E-01    4.68       1.0  T
   3    -22.1314795  0.861505E-05  0.659E-02    4.68       1.0  T
   4    -22.1315049 -0.254134E-04  0.839E-03    4.68       3.3  T
   5    -22.1315050 -0.102618E-06  0.458E-03    4.68       6.1  T
   6    -22.1315050 -0.415053E-07  0.267E-03    4.68      10.4  T
   7    -22.1315051 -0.275826E-07  0.796E-04    4.68      34.9  T
   8    -22.1315051 -0.245475E-08  0.291E-04    4.68      95.4  T
     SCC iter.                  ...        0 min,  0.002 sec
     gradient                   ...        0 min,  0.000 sec
 * total energy  :   -21.8706621 Eh     change       -0.2241276E-02 Eh
   gradient norm :     0.0158340 Eh/α   predicted    -0.1908359E-02 ( -14.85%)
   displ. norm   :     0.1374685 α      lambda       -0.5500217E-03
   maximum displ.:     0.1042058 α      in ANC's #2, #3, #1, ...

........................................................................
.............................. CYCLE    3 ..............................
........................................................................

 iter      E             dE          RMSdq      gap      omega  full diag
   1    -22.1353724 -0.221354E+02  0.781E-02    4.75       0.0  T
   2    -22.1353799 -0.750451E-05  0.463E-02    4.74       1.0  T
   3    -22.1353814 -0.148419E-05  0.300E-02    4.74       1.0  T
   4    -22.1353854 -0.399192E-05  0.412E-03    4.74       6.7  T
   5    -22.1353854 -0.269575E-07  0.192E-03    4.74      14.4  T
   6    -22.1353854 -0.277562E-08  0.113E-03    4.74      24.6  T
   7    -22.1353855 -0.534145E-08  0.408E-04    4.74      67.9  T
   8    -22.1353855 -0.513857E-09  0.126E-04    4.74     219.5  T
     SCC iter.                  ...        0 min,  0.002 sec
     gradient                   ...        0 min,  0.000 sec
 * total energy  :   -21.8710151 Eh     change       -0.3530186E-03 Eh
   gradient norm :     0.0076868 Eh/α   predicted    -0.2802073E-03 ( -20.63%)
   displ. norm   :     0.1102838 α      lambda       -0.1871086E-03
   maximum displ.:     0.0796397 α      in ANC's #2, #3, #1, ...

........................................................................
.............................. CYCLE    4 ..............................
........................................................................

 iter      E             dE          RMSdq      gap      omega  full diag
   1    -22.1354756 -0.221355E+02  0.639E-02    4.76       0.0  T
   2    -22.1354786 -0.300415E-05  0.381E-02    4.76       1.0  T
   3    -22.1354769  0.169944E-05  0.218E-02    4.76       1.3  T
   4    -22.1354801 -0.325907E-05  0.274E-03    4.76      10.1  T
   5    -22.1354802 -0.304677E-07  0.115E-03    4.76      24.0  T
   6    -22.1354802 -0.107828E-08  0.469E-04    4.76      59.2  T
   7    -22.1354802 -0.216559E-09  0.183E-04    4.76     151.6  T
     SCC iter.                  ...        0 min,  0.002 sec
     gradient                   ...        0 min,  0.000 sec
 * total energy  :   -21.8711418 Eh     change       -0.1266874E-03 Eh
   gradient norm :     0.0042674 Eh/α   predicted    -0.9469182E-04 ( -25.26%)
   displ. norm   :     0.0882818 α      lambda       -0.7975641E-04
   maximum displ.:     0.0689109 α      in ANC's #2, #3, #1, ...

........................................................................
.............................. CYCLE    5 ..............................
........................................................................

 iter      E             dE          RMSdq      gap      omega  full diag
   1    -22.1348443 -0.221348E+02  0.519E-02    4.76       0.0  T
   2    -22.1348451 -0.771258E-06  0.311E-02    4.76       1.0  T
   3    -22.1348439  0.113007E-05  0.117E-02    4.76       2.4  T
   4    -22.1348453 -0.141339E-05  0.195E-03    4.76      14.2  T
   5    -22.1348454 -0.204451E-07  0.889E-04    4.76      31.2  T
   6    -22.1348454 -0.107242E-09  0.370E-04    4.76      74.9  T
     SCC iter.                  ...        0 min,  0.001 sec
     gradient                   ...        0 min,  0.001 sec
 * total energy  :   -21.8711921 Eh     change       -0.5029059E-04 Eh
   gradient norm :     0.0030605 Eh/α   predicted    -0.4018956E-04 ( -20.09%)
   displ. norm   :     0.0431163 α      lambda       -0.2267724E-04
   maximum displ.:     0.0297400 α      in ANC's #2, #1, #3, ...

........................................................................
.............................. CYCLE    6 ..............................
........................................................................

 iter      E             dE          RMSdq      gap      omega  full diag
   1    -22.1347204 -0.221347E+02  0.255E-02    4.75       0.0  T
   2    -22.1347205 -0.625698E-07  0.155E-02    4.75       1.8  T
   3    -22.1347202  0.209356E-06  0.514E-03    4.75       5.4  T
   4    -22.1347205 -0.258697E-06  0.792E-04    4.75      35.0  T
   5    -22.1347205 -0.434657E-09  0.356E-04    4.75      78.0  T
     SCC iter.                  ...        0 min,  0.001 sec
     gradient                   ...        0 min,  0.001 sec
 * total energy  :   -21.8712078 Eh     change       -0.1575671E-04 Eh
   gradient norm :     0.0020285 Eh/α   predicted    -0.1136084E-04 ( -27.90%)
   displ. norm   :     0.0405112 α      lambda       -0.1377469E-04
   maximum displ.:     0.0241778 α      in ANC's #2, #1, #3, ...

........................................................................
.............................. CYCLE    7 ..............................
........................................................................

 iter      E             dE          RMSdq      gap      omega  full diag
   1    -22.1347664 -0.221348E+02  0.246E-02    4.75       0.0  T
   2    -22.1347665 -0.935240E-07  0.150E-02    4.75       1.9  T
   3    -22.1347662  0.295120E-06  0.607E-03    4.75       4.6  T
   4    -22.1347665 -0.367422E-06  0.778E-04    4.75      35.6  T
   5    -22.1347665 -0.539703E-09  0.433E-04    4.75      64.1  T
     SCC iter.                  ...        0 min,  0.001 sec
     gradient                   ...        0 min,  0.001 sec
 * total energy  :   -21.8712173 Eh     change       -0.9515618E-05 Eh
   gradient norm :     0.0011682 Eh/α   predicted    -0.6899583E-05 ( -27.49%)
   displ. norm   :     0.0430985 α      lambda       -0.7350350E-05
   maximum displ.:     0.0299092 α      in ANC's #1, #5, #3, ...

........................................................................
.............................. CYCLE    8 ..............................
........................................................................

 iter      E             dE          RMSdq      gap      omega  full diag
   1    -22.1350605 -0.221351E+02  0.292E-02    4.75       0.0  T
   2    -22.1350607 -0.160920E-06  0.177E-02    4.75       1.6  T
   3    -22.1350604  0.313205E-06  0.608E-03    4.75       4.6  T
   4    -22.1350608 -0.397679E-06  0.100E-03    4.75      27.6  T
   5    -22.1350608 -0.263069E-08  0.544E-04    4.75      51.0  T
   6    -22.1350608 -0.183981E-09  0.137E-04    4.75     202.0  T
     SCC iter.                  ...        0 min,  0.001 sec
     gradient                   ...        0 min,  0.001 sec
 * total energy  :   -21.8712234 Eh     change       -0.6042824E-05 Eh
   gradient norm :     0.0008874 Eh/α   predicted    -0.3677749E-05 ( -39.14%)
   displ. norm   :     0.0206065 α      lambda       -0.2803691E-05
   maximum displ.:     0.0157619 α      in ANC's #1, #2, #5, ...

........................................................................
.............................. CYCLE    9 ..............................
........................................................................

 iter      E             dE          RMSdq      gap      omega  full diag
   1    -22.1351214 -0.221351E+02  0.154E-02    4.75       0.0  T
   2    -22.1351214 -0.169272E-07  0.925E-03    4.75       3.0  T
   3    -22.1351214  0.568987E-07  0.264E-03    4.75      10.5  T
   4    -22.1351215 -0.697003E-07  0.435E-04    4.75      63.7  T
   5    -22.1351215 -0.197765E-09  0.185E-04    4.75     149.6  T
     SCC iter.                  ...        0 min,  0.001 sec
     gradient                   ...        0 min,  0.001 sec
 * total energy  :   -21.8712268 Eh     change       -0.3388258E-05 Eh
   gradient norm :     0.0006150 Eh/α   predicted    -0.1400332E-05 ( -58.67%)
   displ. norm   :     0.0467286 α      lambda       -0.4280991E-05
   maximum displ.:     0.0374801 α      in ANC's #1, #2, #5, ...

........................................................................
.............................. CYCLE   10 ..............................
........................................................................

 iter      E             dE          RMSdq      gap      omega  full diag
   1    -22.1350873 -0.221351E+02  0.341E-02    4.75       0.0  T
   2    -22.1350873 -0.572473E-07  0.204E-02    4.75       1.4  T
   3    -22.1350871  0.233246E-06  0.528E-03    4.75       5.3  T
   4    -22.1350874 -0.283495E-06  0.846E-04    4.75      32.8  T
   5    -22.1350874 -0.357868E-09  0.263E-04    4.75     105.7  T
     SCC iter.                  ...        0 min,  0.001 sec
     gradient                   ...        0 min,  0.001 sec
 * total energy  :   -21.8712314 Eh     change       -0.4681377E-05 Eh
   gradient norm :     0.0005145 Eh/α   predicted    -0.2141332E-05 ( -54.26%)
   displ. norm   :     0.0472977 α      lambda       -0.3166136E-05
   maximum displ.:     0.0403707 α      in ANC's #1, #2, #4, ...

........................................................................
.............................. CYCLE   11 ..............................
........................................................................

 iter      E             dE          RMSdq      gap      omega  full diag
   1    -22.1350656 -0.221351E+02  0.325E-02    4.75       0.0  T
   2    -22.1350656 -0.452816E-07  0.194E-02    4.75       1.4  T
   3    -22.1350654  0.200435E-06  0.477E-03    4.75       5.8  T
   4    -22.1350657 -0.241160E-06  0.750E-04    4.75      37.0  T
   5    -22.1350657 -0.250918E-09  0.236E-04    4.75     117.3  T
     SCC iter.                  ...        0 min,  0.001 sec
     gradient                   ...        0 min,  0.001 sec
 * total energy  :   -21.8712351 Eh     change       -0.3622061E-05 Eh
   gradient norm :     0.0007535 Eh/α   predicted    -0.1586121E-05 ( -56.21%)
   displ. norm   :     0.0353380 α      lambda       -0.2602000E-05
   maximum displ.:     0.0317258 α      in ANC's #1, #2, #4, ...

........................................................................
.............................. CYCLE   12 ..............................
........................................................................

 iter      E             dE          RMSdq      gap      omega  full diag
   1    -22.1350333 -0.221350E+02  0.247E-02    4.75       0.0  T
   2    -22.1350333 -0.190790E-07  0.147E-02    4.75       1.9  T
   3    -22.1350332  0.783987E-07  0.286E-03    4.75       9.7  T
   4    -22.1350333 -0.943994E-07  0.479E-04    4.75      57.8  T
   5    -22.1350333 -0.222329E-10  0.177E-04    4.75     156.6  T
     SCC iter.                  ...        0 min,  0.001 sec
     gradient                   ...        0 min,  0.001 sec
 * total energy  :   -21.8712385 Eh     change       -0.3397944E-05 Eh
   gradient norm :     0.0005063 Eh/α   predicted    -0.1302983E-05 ( -61.65%)
   displ. norm   :     0.0235500 α      lambda       -0.2287316E-05
   maximum displ.:     0.0223001 α      in ANC's #1, #2, #4, ...

........................................................................
.............................. CYCLE   13 ..............................
........................................................................

 iter      E             dE          RMSdq      gap      omega  full diag
   1    -22.1350920 -0.221351E+02  0.144E-02    4.75       0.0  T
   2    -22.1350920 -0.113547E-07  0.859E-03    4.75       3.2  T
   3    -22.1350920  0.536171E-07  0.228E-03    4.75      12.2  T
   4    -22.1350920 -0.636290E-07  0.315E-04    4.75      88.0  T
   5    -22.1350920  0.217106E-10  0.154E-04    4.75     180.7  T
     SCC iter.                  ...        0 min,  0.001 sec
     gradient                   ...        0 min,  0.001 sec
 * total energy  :   -21.8712414 Eh     change       -0.2924506E-05 Eh
   gradient norm :     0.0003460 Eh/α   predicted    -0.1145609E-05 ( -60.83%)
   displ. norm   :     0.0227147 α      lambda       -0.1914012E-05
   maximum displ.:     0.0221849 α      in ANC's #1, #4, #10, ...

........................................................................
.............................. CYCLE   14 ..............................
........................................................................

 iter      E             dE          RMSdq      gap      omega  full diag
   1    -22.1350188 -0.221350E+02  0.139E-02    4.75       0.0  T
   2    -22.1350189 -0.110181E-07  0.824E-03    4.75       3.4  T
   3    -22.1350188  0.410020E-07  0.198E-03    4.75      14.0  T
   4    -22.1350189 -0.492524E-07  0.304E-04    4.75      91.3  T
   5    -22.1350189 -0.606306E-10  0.146E-04    4.75     189.3  T
     SCC iter.                  ...        0 min,  0.002 sec
     gradient                   ...        0 min,  0.000 sec
 * total energy  :   -21.8712437 Eh     change       -0.2322533E-05 Eh
   gradient norm :     0.0002981 Eh/α   predicted    -0.9579853E-06 ( -58.75%)
   displ. norm   :     0.0179001 α      lambda       -0.1115743E-05
   maximum displ.:     0.0176318 α      in ANC's #1, #2, #9, ...

........................................................................
.............................. CYCLE   15 ..............................
........................................................................

 iter      E             dE          RMSdq      gap      omega  full diag
   1    -22.1350641 -0.221351E+02  0.108E-02    4.75       0.0  T
   2    -22.1350641 -0.808681E-08  0.647E-03    4.75       4.3  T
   3    -22.1350641  0.295237E-07  0.173E-03    4.75      16.1  T
   4    -22.1350641 -0.359224E-07  0.283E-04    4.75      98.0  T
   5    -22.1350641 -0.396447E-10  0.134E-04    4.75     206.8  T
     SCC iter.                  ...        0 min,  0.000 sec
     gradient                   ...        0 min,  0.001 sec
 * total energy  :   -21.8712452 Eh     change       -0.1473211E-05 Eh
   gradient norm :     0.0002061 Eh/α   predicted    -0.5590506E-06 ( -62.05%)
   displ. norm   :     0.0162873 α      lambda       -0.9083946E-06
   maximum displ.:     0.0157754 α      in ANC's #1, #5, #8, ...

........................................................................
.............................. CYCLE   16 ..............................
........................................................................

 iter      E             dE          RMSdq      gap      omega  full diag
   1    -22.1350696 -0.221351E+02  0.101E-02    4.75       0.0  T
   2    -22.1350696 -0.513864E-08  0.606E-03    4.75       4.6  T
   3    -22.1350696  0.174999E-07  0.137E-03    4.75      20.3  T
   4    -22.1350696 -0.216664E-07  0.254E-04    4.75     109.1  T
   5    -22.1350696 -0.343583E-10  0.962E-05    4.75     288.3  T
     SCC iter.                  ...        0 min,  0.001 sec
     gradient                   ...        0 min,  0.001 sec
 * total energy  :   -21.8712464 Eh     change       -0.1264072E-05 Eh
   gradient norm :     0.0002499 Eh/α   predicted    -0.4528739E-06 ( -64.17%)
   displ. norm   :     0.0180827 α      lambda       -0.9912992E-06
   maximum displ.:     0.0171874 α      in ANC's #1, #5, #2, ...

........................................................................
.............................. CYCLE   17 ..............................
........................................................................

 iter      E             dE          RMSdq      gap      omega  full diag
   1    -22.1350895 -0.221351E+02  0.119E-02    4.75       0.0  T
   2    -22.1350895 -0.649793E-08  0.712E-03    4.75       3.9  T
   3    -22.1350895  0.176624E-07  0.143E-03    4.75      19.4  T
   4    -22.1350895 -0.227157E-07  0.304E-04    4.75      91.2  T
   5    -22.1350895 -0.549747E-10  0.963E-05    4.75     288.0  T
     SCC iter.                  ...        0 min,  0.001 sec
     gradient                   ...        0 min,  0.001 sec
 * total energy  :   -21.8712479 Eh     change       -0.1431066E-05 Eh
   gradient norm :     0.0001754 Eh/α   predicted    -0.4972501E-06 ( -65.25%)
   displ. norm   :     0.0217803 α      lambda       -0.1139075E-05
   maximum displ.:     0.0200999 α      in ANC's #1, #2, #5, ...

........................................................................
.............................. CYCLE   18 ..............................
........................................................................

 iter      E             dE          RMSdq      gap      omega  full diag
   1    -22.1350812 -0.221351E+02  0.149E-02    4.75       0.0  T
   2    -22.1350812 -0.977809E-08  0.891E-03    4.75       3.1  T
   3    -22.1350811  0.298036E-07  0.183E-03    4.75      15.1  T
   4    -22.1350812 -0.375967E-07  0.369E-04    4.75      75.1  T
   5    -22.1350812 -0.529106E-10  0.127E-04    4.75     218.8  T
     SCC iter.                  ...        0 min,  0.001 sec
     gradient                   ...        0 min,  0.001 sec
 * total energy  :   -21.8712495 Eh     change       -0.1631673E-05 Eh
   gradient norm :     0.0001369 Eh/α   predicted    -0.5684816E-06 ( -65.16%)
   displ. norm   :     0.0254221 α      lambda       -0.1223906E-05
   maximum displ.:     0.0232886 α      in ANC's #1, #2, #5, ...

........................................................................
.............................. CYCLE   19 ..............................
........................................................................

 iter      E             dE          RMSdq      gap      omega  full diag
   1    -22.1350860 -0.221351E+02  0.175E-02    4.75       0.0  T
   2    -22.1350860 -0.121318E-07  0.105E-02    4.75       2.7  T
   3    -22.1350860  0.394206E-07  0.213E-03    4.75      13.0  T
   4    -22.1350860 -0.493525E-07  0.415E-04    4.75      66.9  T
   5    -22.1350860 -0.788738E-10  0.126E-04    4.75     219.3  T
     SCC iter.                  ...        0 min,  0.001 sec
     gradient                   ...        0 min,  0.001 sec
 * total energy  :   -21.8712513 Eh     change       -0.1750309E-05 Eh
   gradient norm :     0.0001136 Eh/α   predicted    -0.6131293E-06 ( -64.97%)
   displ. norm   :     0.0257229 α      lambda       -0.1143233E-05
   maximum displ.:     0.0237599 α      in ANC's #1, #2, #5, ...

........................................................................
.............................. CYCLE   20 ..............................
........................................................................

 iter      E             dE          RMSdq      gap      omega  full diag
   1    -22.1350752 -0.221351E+02  0.176E-02    4.75       0.0  T
   2    -22.1350752 -0.122626E-07  0.105E-02    4.75       2.6  T
   3    -22.1350751  0.422244E-07  0.216E-03    4.75      12.8  T
   4    -22.1350752 -0.522927E-07  0.408E-04    4.75      68.0  T
   5    -22.1350752 -0.616254E-10  0.142E-04    4.75     196.0  T
     SCC iter.                  ...        0 min,  0.001 sec
     gradient                   ...        0 min,  0.000 sec
 * total energy  :   -21.8712529 Eh     change       -0.1638841E-05 Eh
   gradient norm :     0.0001195 Eh/α   predicted    -0.5704638E-06 ( -65.19%)
   displ. norm   :     0.0223720 α      lambda       -0.9415850E-06
   maximum displ.:     0.0208988 α      in ANC's #1, #2, #4, ...
 * RMSD in coord.:     0.2033527 α      energy gain  -0.2832114E-02 Eh

generating ANC from exact Hessian ...
Using Lindh-Hessian (1995)
 Shifting diagonal of input Hessian by   4.203203702537713E-003
 Lowest  eigenvalues of input Hessian
    0.000000    0.000000    0.000000    0.000000    0.000000    0.000000
    0.010000    0.011597    0.019985    0.026750    0.036237    0.053279
    0.062138    0.080325    0.085726    0.102455    0.108586    0.116600
 Highest eigenvalues
    1.454510    1.501345    1.804429    1.835784    1.953023    2.016646
 

........................................................................
.............................. CYCLE   21 ..............................
........................................................................

 iter      E             dE          RMSdq      gap      omega  full diag
   1    -22.1350804 -0.221351E+02  0.151E-02    4.75       0.0  T
   2    -22.1350804 -0.874505E-08  0.901E-03    4.75       3.1  T
   3    -22.1350804  0.328126E-07  0.189E-03    4.75      14.7  T
   4    -22.1350804 -0.402392E-07  0.341E-04    4.75      81.2  T
   5    -22.1350804 -0.364331E-10  0.112E-04    4.75     248.1  T
     SCC iter.                  ...        0 min,  0.002 sec
     gradient                   ...        0 min,  0.001 sec
 * total energy  :   -21.8712543 Eh     change       -0.1366050E-05 Eh
   gradient norm :     0.0001241 Eh/α   predicted     0.0000000E+00 (-100.00%)
   displ. norm   :     0.0104064 α      lambda       -0.5173757E-06
   maximum displ.:     0.0103124 α      in ANC's #1, #2, #5, ...

........................................................................
.............................. CYCLE   22 ..............................
........................................................................

 iter      E             dE          RMSdq      gap      omega  full diag
   1    -22.1350960 -0.221351E+02  0.640E-03    4.75       0.0  T
   2    -22.1350960 -0.180124E-08  0.381E-03    4.75       7.3  T
   3    -22.1350959  0.500102E-08  0.719E-04    4.75      38.6  T
   4    -22.1350960 -0.640192E-08  0.148E-04    4.75     187.3  T
     SCC iter.                  ...        0 min,  0.001 sec
     gradient                   ...        0 min,  0.001 sec
 * total energy  :   -21.8712549 Eh     change       -0.6696912E-06 Eh
   gradient norm :     0.0001003 Eh/α   predicted    -0.2581498E-06 ( -61.45%)
   displ. norm   :     0.0099574 α      lambda       -0.4393733E-06
   maximum displ.:     0.0097104 α      in ANC's #1, #4, #6, ...

   *** GEOMETRY OPTIMIZATION CONVERGED AFTER 22 ITERATIONS ***

------------------------------------------------------------------------
 total energy gain   :        -0.0028341 Eh       -1.7785 kcal/mol
 total RMSD          :         0.2051771 a0        0.1086 Å
 total power (kW/mol):        -0.3382299 (step) -112.7433 (real)
------------------------------------------------------------------------

 ANCopt (total)                0 d,  0 h,  0 min,  0.066 sec
 optimizer setup                ...        0 min,  0.000 sec (  0.000%)
 model hessian                  ...        0 min,  0.003 sec (  4.545%)
 ANC generation                 ...        0 min,  0.000 sec (  0.000%)
 coordinate transformation      ...        0 min,  0.000 sec (  0.000%)
 single point calculation       ...        0 min,  0.054 sec ( 81.819%)
 optimization log               ...        0 min,  0.005 sec (  7.575%)
 hessian update                 ...        0 min,  0.000 sec (  0.000%)
 rational function              ...        0 min,  0.003 sec (  4.545%)

================
 final structure:
================
13
 xtb: 6.7.1pre (5071a88)
C           -1.94243818063751        0.36226220990084       -0.31004007211878
C           -1.70448874453127       -0.84156028870113        0.27296515439294
O           -0.39631492945228       -0.98812680338039        0.54234245677118
C            0.22736892975147        0.13979940885441        0.12712019993774
C           -0.68202913880485        1.00199124785180       -0.40897370539821
C            1.71100940101920        0.22197592187967        0.29639706780705
O            2.40635450747774       -0.64846659812041       -0.56997864972178
H           -2.88789686982685        0.74820185599141       -0.63097920731049
H           -2.35207795545795       -1.65322813069481        0.53881679022353
H           -0.48052964982718        1.96936088266662       -0.82021683444210
H            2.04956559759365        1.22897973589723        0.04765583381339
H            1.97249512553584        0.00323519147608        1.34345628929343
H            2.07898190716001       -1.54442363362134       -0.42856632324790
 
 Bond Distances (Angstroems)
 ---------------------------
C1-C2=1.3586         C1-C5=1.4169         C1-H8=1.0704         C2-C1=1.3586         C2-O3=1.3436         C2-H9=1.0718         
O3-C2=1.3436         O3-C4=1.3541         C4-O3=1.3541         C4-C5=1.3630         C4-C6=1.4955         C5-C1=1.4169         
C5-C4=1.3630         C5-H10=1.0703        C6-C4=1.4955         C6-O7=1.4113         C6-H11=1.0911        C6-H12=1.1012        
O7-C6=1.4113         O7-H13=0.9643        H8-C1=1.0704         H9-C2=1.0718         H10-C5=1.0703        H11-C6=1.0911        
H12-C6=1.1012        H13-O7=0.9643        
 C  H  Rav=1.0810 sigma=0.0128  Rmin=1.0703  Rmax=1.1012     5
 C  C  Rav=1.4085 sigma=0.0552  Rmin=1.3586  Rmax=1.4955     4
 O  H  Rav=0.9643 sigma=0.0000  Rmin=0.9643  Rmax=0.9643     1
 O  C  Rav=1.3697 sigma=0.0297  Rmin=1.3436  Rmax=1.4113     3
 
 selected bond angles (degree)
 --------------------
C5-C1-C2=105.92                H8-C1-C2=127.07                H8-C1-C5=127.01                O3-C2-C1=110.68                
H9-C2-C1=132.19                H9-C2-O3=117.12                C4-O3-C2=107.22                C5-C4-O3=109.89                
C6-C4-O3=117.90                C6-C4-C5=132.20                C4-C5-C1=106.29                H10-C5-C1=127.04               
H10-C5-C4=126.67               O7-C6-C4=112.67                H11-C6-C4=109.43               H11-C6-O7=106.05               
H12-C6-C4=109.41               H12-C6-O7=110.13               H12-C6-H11=109.05              H13-O7-C6=108.41               
 
 selected dihedral angles (degree)
 ---------------------------------
O3-C2-C1-C5=  0.16            O3-C2-C1-H8=180.05            H9-C2-C1-C5=180.28            H9-C2-C1-H8=  0.17            
C4-O3-C2-C1=  0.00            C4-O3-C2-H9=179.89            C5-C4-O3-C2=359.85            C6-C4-O3-C2=180.92            
C4-C5-C1-C2=359.76            C4-C5-C1-H8=179.87            H10-C5-C1-C2=179.85           H10-C5-C1-H8=359.96           
C1-C5-C4-O3=  0.25            C1-C5-C4-C6=178.97            H10-C5-C4-O3=180.15           H10-C5-C4-C6=358.88           
O7-C6-C4-O3= 70.00            O7-C6-C4-C5=251.35            H11-C6-C4-O3=187.71           H11-C6-C4-C5=  9.06           
H12-C6-C4-O3=307.13           H12-C6-C4-C5=128.49           H13-O7-C6-C4=304.26           H13-O7-C6-H11=184.57          
H13-O7-C6-H12= 66.72          
           -------------------------------------------------
          |                Final Singlepoint                |
           -------------------------------------------------

          ...................................................
          :                      SETUP                      :
          :.................................................:
          :  # basis functions                  34          :
          :  # atomic orbitals                  34          :
          :  # shells                           20          :
          :  # electrons                        38          :
          :  max. iterations                   250          :
          :  Hamiltonian                  GFN2-xTB          :
          :  restarted?                      false          :
          :  GBSA solvation                  false          :
          :  PC potential                    false          :
          :  electronic temp.          300.0000000     K    :
          :  accuracy                    1.0000000          :
          :  -> integral cutoff          0.2500000E+02      :
          :  -> integral neglect         0.1000000E-07      :
          :  -> SCF convergence          0.1000000E-05 Eh   :
          :  -> wf. convergence          0.1000000E-03 e    :
          :  Broyden damping             0.4000000          :
          :  net charge                          0          :
          :  unpaired electrons                  0          :
          ...................................................

 iter      E             dE          RMSdq      gap      omega  full diag
   1    -22.1350960 -0.221351E+02  0.526E-05    4.75       0.0  T
   2    -22.1350960 -0.912692E-11  0.380E-05    4.75     729.5  T
   3    -22.1350960 -0.110738E-10  0.169E-05    4.75    1637.9  T

   *** convergence criteria satisfied after 3 iterations ***

         #    Occupation            Energy/Eh            Energy/eV
      -------------------------------------------------------------
         1        2.0000           -0.7440510             -20.2467
       ...           ...                  ...                  ...
        13        2.0000           -0.4824959             -13.1294
        14        2.0000           -0.4767525             -12.9731
        15        2.0000           -0.4683102             -12.7434
        16        2.0000           -0.4628535             -12.5949
        17        2.0000           -0.4295469             -11.6886
        18        2.0000           -0.4196909             -11.4204
        19        2.0000           -0.3935734             -10.7097 (HOMO)
        20                         -0.2188856              -5.9562 (LUMO)
        21                         -0.1647593              -4.4833
        22                          0.0583072               1.5866
        23                          0.0708213               1.9271
        24                          0.1040327               2.8309
       ...                                ...                  ...
        34                          0.6995086              19.0346
      -------------------------------------------------------------
                  HL-Gap            0.1746878 Eh            4.7535 eV
             Fermi-level           -0.3062295 Eh           -8.3329 eV

 SCC (total)                   0 d,  0 h,  0 min,  0.003 sec
 SCC setup                      ...        0 min,  0.000 sec (  0.000%)
 Dispersion                     ...        0 min,  0.000 sec (  0.000%)
 classical contributions        ...        0 min,  0.000 sec (  0.000%)
 integral evaluation            ...        0 min,  0.001 sec ( 33.339%)
 iterations                     ...        0 min,  0.001 sec ( 33.331%)
 molecular gradient             ...        0 min,  0.001 sec ( 33.331%)
 printout                       ...        0 min,  0.000 sec (  0.000%)

         :::::::::::::::::::::::::::::::::::::::::::::::::::::
         ::                     SUMMARY                     ::
         :::::::::::::::::::::::::::::::::::::::::::::::::::::
         :: total energy             -21.871254929259 Eh    ::
         :: gradient norm              0.000100424611 Eh/a0 ::
         :: HOMO-LUMO gap              4.753497382632 eV    ::
         ::.................................................::
         :: SCC energy               -22.135085633412 Eh    ::
         :: -> isotropic ES            0.031806546947 Eh    ::
         :: -> anisotropic ES          0.002368218842 Eh    ::
         :: -> anisotropic XC          0.003388925836 Eh    ::
         :: -> dispersion             -0.008004518978 Eh    ::
         :: repulsion energy           0.263830704153 Eh    ::
         :: add. restraining           0.000000000000 Eh    ::
         :: total charge               0.000000000000 e     ::
         :::::::::::::::::::::::::::::::::::::::::::::::::::::

           -------------------------------------------------
          |                Property Printout                |
           -------------------------------------------------

    * Orbital Energies and Occupations

         #    Occupation            Energy/Eh            Energy/eV
      -------------------------------------------------------------
         1        2.0000           -0.7440510             -20.2467
       ...           ...                  ...                  ...
         7        2.0000           -0.5814418             -15.8218
         8        2.0000           -0.5753952             -15.6573
         9        2.0000           -0.5721410             -15.5687
        10        2.0000           -0.5496418             -14.9565
        11        2.0000           -0.5265231             -14.3274
        12        2.0000           -0.5198291             -14.1453
        13        2.0000           -0.4824959             -13.1294
        14        2.0000           -0.4767525             -12.9731
        15        2.0000           -0.4683102             -12.7434
        16        2.0000           -0.4628535             -12.5949
        17        2.0000           -0.4295469             -11.6886
        18        2.0000           -0.4196909             -11.4204
        19        2.0000           -0.3935734             -10.7097 (HOMO)
        20                         -0.2188856              -5.9562 (LUMO)
        21                         -0.1647593              -4.4833
        22                          0.0583072               1.5866
        23                          0.0708213               1.9271
        24                          0.1040327               2.8309
        25                          0.1267429               3.4489
        26                          0.1546976               4.2095
        27                          0.1615090               4.3949
        28                          0.1804805               4.9111
        29                          0.2203593               5.9963
        30                          0.2481786               6.7533
       ...                                ...                  ...
        34                          0.6995086              19.0346
      -------------------------------------------------------------
                  HL-Gap            0.1746878 Eh            4.7535 eV
             Fermi-level           -0.3062295 Eh           -8.3329 eV

     #   Z          covCN         q      C6AA      α(0)
     1   6 C        3.013    -0.062    29.522     8.913
     2   6 C        3.062     0.067    26.446     8.433
     3   8 O        1.731    -0.191    17.187     5.598
     4   6 C        3.104     0.091    25.860     8.333
     5   6 C        3.023    -0.067    29.652     8.932
     6   6 C        3.675     0.073    19.573     6.339
     7   8 O        1.655    -0.434    21.517     6.262
     8   1 H        0.926     0.041     2.440     2.443
     9   1 H        0.926     0.047     2.355     2.400
    10   1 H        0.927     0.041     2.431     2.438
    11   1 H        0.924     0.062     2.181     2.310
    12   1 H        0.923     0.037     2.491     2.468
    13   1 H        0.805     0.296     0.733     1.345

 Mol. C6AA /au·bohr⁶  :       1828.739488
 Mol. C8AA /au·bohr⁸  :      42441.563553
 Mol. α(0) /au        :         66.212252


Wiberg/Mayer (AO) data.
largest (>0.10) Wiberg bond orders for each atom

 ---------------------------------------------------------------------------
     #   Z sym  total        # sym  WBO       # sym  WBO       # sym  WBO
 ---------------------------------------------------------------------------
     1   6 C    3.984 --     2 C    1.615     5 C    1.288     8 H    0.975
     2   6 C    3.908 --     1 C    1.615     3 O    1.133     9 H    0.967
                             4 C    0.146
     3   8 O    2.435 --     2 C    1.133     4 C    1.113
     4   6 C    3.908 --     5 C    1.586     3 O    1.113     6 C    1.001
                             2 C    0.146
     5   6 C    3.983 --     4 C    1.586     1 C    1.288    10 H    0.975
     6   6 C    3.962 --     4 C    1.001     7 O    0.994    11 H    0.971
                            12 H    0.960
     7   8 O    1.963 --     6 C    0.994    13 H    0.899
     8   1 H    0.998 --     1 C    0.975
     9   1 H    0.998 --     2 C    0.967
    10   1 H    0.998 --     5 C    0.975
    11   1 H    0.996 --     6 C    0.971
    12   1 H    0.998 --     6 C    0.960
    13   1 H    0.912 --     7 O    0.899
 ---------------------------------------------------------------------------

Topologies differ in total number of bonds
Writing topology from bond orders to xtbtopo.mol

molecular dipole:
                 x           y           z       tot (Debye)
 q only:       -0.385       0.010       0.252
   full:       -0.551      -0.122       0.389       1.742
molecular quadrupole (traceless):
                xx          xy          yy          xz          yz          zz
 q only:       -1.612       0.429       2.792       2.460       0.210      -1.180
  q+dip:       -3.186       0.440       4.977       4.215      -1.598      -1.790
   full:       -3.355       0.460       4.539       3.612      -0.413      -1.184

           -------------------------------------------------
          |                Geometry Summary                 |
           -------------------------------------------------

      molecular mass/u    :       98.1001338
   center of mass at/Å    :        0.0390458      -0.1509000      -0.0067504
  moments of inertia/u·Å² :        0.7153584E+02   0.2580078E+03   0.3027398E+03
rotational constants/cm⁻¹ :        0.2356529E+00   0.6533767E-01   0.5568357E-01

 * 13 selected distances

     #   Z          #   Z                                           value/Å
     1   6 C        2   6 C                                       1.3585669
     2   6 C        3   8 O                                       1.3436387
     3   8 O        4   6 C                                       1.3541082
     1   6 C        5   6 C                                       1.4169236
     4   6 C        5   6 C                                       1.3630028
     4   6 C        6   6 C                                       1.4955257 (max)
     6   6 C        7   8 O                                       1.4113052
     1   6 C        8   1 H                                       1.0704409
     2   6 C        9   1 H                                       1.0718460
     5   6 C       10   1 H                                       1.0702930
     6   6 C       11   1 H                                       1.0911230
     6   6 C       12   1 H                                       1.1011610
     7   8 O       13   1 H                                       0.9643181 (min)

 * 4 distinct bonds (by element types)

   Z      Z             #   av. dist./Å        max./Å        min./Å
   1 H    6 C           5     1.0809728     1.1011610     1.0702930
   6 C    6 C           4     1.4085047     1.4955257     1.3585669
   1 H    8 O           1     0.9643181     0.9643181     0.9643181
   6 C    8 O           3     1.3696840     1.4113052     1.3436387


optimized geometry written to: xtbopt.xyz


           -------------------------------------------------
          | TOTAL ENERGY              -21.871254929259 Eh   |
          | GRADIENT NORM               0.000100424611 Eh/α |
          | HOMO-LUMO GAP               4.753497382632 eV   |
           -------------------------------------------------

------------------------------------------------------------------------
 * finished run on 2026/09/17 at 00:40:24.159     
------------------------------------------------------------------------
 total:
 * wall-time:     0 d,  0 h,  0 min,  0.144 sec
 *  cpu-time:     0 d,  0 h,  0 min,  0.547 sec
 * ratio c/w:     3.798 speedup
 SCF:
 * wall-time:     0 d,  0 h,  0 min,  0.005 sec
 *  cpu-time:     0 d,  0 h,  0 min,  0.000 sec
 * ratio c/w:     0.000 speedup
 ANC optimizer:
 * wall-time:     0 d,  0 h,  0 min,  0.085 sec
 *  cpu-time:     0 d,  0 h,  0 min,  0.375 sec
 * ratio c/w:     4.412 speedup

