18
Coordinates from ORCA-job optfreq E -235.797741342212
  C      -0.695714     -1.118502     -0.646513
  C       0.551003     -1.344606      0.203650
  C       1.453555     -0.114947      0.164344
  C       0.695714      1.118502      0.646513
  C      -0.551003      1.344606     -0.203650
  C      -1.453555      0.114947     -0.164344
  H      -0.401304     -0.977069     -1.689284
  H      -1.343813     -1.996426     -0.598207
  H       1.096174     -2.218630     -0.159653
  H       0.253331     -1.541570      1.236437
  H       1.796421      0.049111     -0.860146
  H       2.334178     -0.279067      0.789392
  H       1.343813      1.996426      0.598207
  H       0.401304      0.977069      1.689284
  H      -0.253331      1.541570     -1.236437
  H      -1.096174      2.218630      0.159653
  H      -2.334177      0.279067     -0.789393
  H      -1.796421     -0.049111      0.860146
18
Coordinates from ORCA-job optfreq E -235.798508765145
  C      -0.702782     -1.127904     -0.643771
  C       0.557396     -1.352803      0.198559
  C       1.462078     -0.116571      0.171438
  C       0.702613      1.127154      0.644795
  C      -0.556814      1.353275     -0.198314
  C      -1.461624      0.117131     -0.172338
  H      -0.413324     -0.995803     -1.695566
  H      -1.354020     -2.009450     -0.593297
  H       1.104947     -2.230352     -0.167293
  H       0.263493     -1.561730      1.236577
  H       1.816790      0.047657     -0.855550
  H       2.346373     -0.281280      0.799640
  H       1.353561      2.009031      0.596422
  H       0.413124      0.993098      1.696334
  H      -0.262349      1.561496     -1.236314
  H      -1.104437      2.230703      0.167718
  H      -2.344507      0.282143     -0.802446
  H      -1.820517     -0.045795      0.853403
18
Coordinates from ORCA-job optfreq E -235.798562284122
  C      -0.704200     -1.129314     -0.642098
  C       0.558800     -1.353987      0.196447
  C       1.462935     -0.117219      0.174062
  C       0.704100      1.128852      0.642978
  C      -0.558276      1.354306     -0.196198
  C      -1.462596      0.117631     -0.174780
  H      -0.417174     -1.000974     -1.696215
  H      -1.355480     -2.010995     -0.592477
  H       1.106164     -2.231970     -0.169096
  H       0.266933     -1.567634      1.235266
  H       1.823168      0.046378     -0.852294
  H       2.347585     -0.281820      0.801998
  H       1.355105      2.010897      0.595196
  H       0.416952      0.998891      1.696859
  H      -0.265854      1.567332     -1.234971
  H      -1.105761      2.232142      0.169368
  H      -2.346022      0.282436     -0.804532
  H      -1.826379     -0.044952      0.850486
18
Coordinates from ORCA-job optfreq E -235.798572875505
  C      -0.704322     -1.129126     -0.641289
  C       0.558935     -1.353823      0.195541
  C       1.462415     -0.117508      0.175156
  C       0.704287      1.128979      0.641767
  C      -0.558640      1.353946     -0.195391
  C      -1.462275      0.117701     -0.175510
  H      -0.418433     -1.002455     -1.696162
  H      -1.355430     -2.010860     -0.593066
  H       1.105986     -2.232098     -0.169343
  H       0.268111     -1.569668      1.234435
  H       1.825770      0.045531     -0.850437
  H       2.347294     -0.281934      0.802605
  H       1.355218      2.010929      0.594608
  H       0.418249      1.001428      1.696499
  H      -0.267451      1.569446     -1.234242
  H      -1.105805      2.232150      0.169397
  H      -2.346434      0.282204     -0.804067
  H      -1.827475     -0.044843      0.849499
18
Coordinates from ORCA-job optfreq E -235.798573984607
  C      -0.704102     -1.128757     -0.641276
  C       0.558694     -1.353552      0.195526
  C       1.461990     -0.117548      0.175220
  C       0.704087      1.128724      0.641484
  C      -0.558566      1.353589     -0.195460
  C      -1.461955      0.117627     -0.175358
  H      -0.418267     -1.002185     -1.696120
  H      -1.355126     -2.010584     -0.593929
  H       1.105630     -2.232027     -0.168948
  H       0.268000     -1.569658      1.234338
  H       1.826080      0.045282     -0.850092
  H       2.347043     -0.281871      0.802431
  H       1.355025      2.010644      0.594654
  H       0.418142      1.001743      1.696259
  H      -0.267680      1.569545     -1.234247
  H      -1.105570      2.232053      0.168909
  H      -2.346651      0.281975     -0.803110
  H      -1.826774     -0.045000      0.849718
