15

C     -1.983337   -0.290701    0.052592
C     -0.591145   -0.177162    0.644795
C      0.230809    0.930282    0.025389
C      1.640354    0.443224    0.256378
C      1.465277   -1.044877    0.197490
O      2.361184   -1.858198    0.044057
O      0.150176   -1.370443    0.376407
H     -2.520742   -1.130989    0.505036
H     -1.940191   -0.491838   -1.023476
H     -2.560129    0.624091    0.217867
H     -0.659803   -0.059699    1.733132
H      0.043084    1.001552   -1.053390
H      0.034055    1.910649    0.468223
H      2.010862    0.721320    1.247098
H      2.319547    0.792789   -0.524313
