      -----------------------------------------------------------      
     |                   =====================                   |     
     |                           x T B                           |     
     |                   =====================                   |     
     |                         S. Grimme                         |     
     |          Mulliken Center for Theoretical Chemistry        |     
     |                    University of Bonn                     |     
      -----------------------------------------------------------      

   * xtb version 6.7.1pre (5071a88) compiled by 'Marcel@Raven' on 2024-07-23

   xtb is free software: you can redistribute it and/or modify it under
   the terms of the GNU Lesser General Public License as published by
   the Free Software Foundation, either version 3 of the License, or
   (at your option) any later version.
   
   xtb is distributed in the hope that it will be useful,
   but WITHOUT ANY WARRANTY; without even the implied warranty of
   MERCHANTABILITY or FITNESS FOR A PARTICULAR PURPOSE.  See the
   GNU Lesser General Public License for more details.
   
   Cite this work as:
   * C. Bannwarth, E. Caldeweyher, S. Ehlert, A. Hansen, P. Pracht,
     J. Seibert, S. Spicher, S. Grimme, WIREs Comput. Mol. Sci., 2020, 11,
     e01493. DOI: 10.1002/wcms.1493
   
   for GFN2-xTB:
   * C. Bannwarth, S. Ehlert and S. Grimme., J. Chem. Theory Comput., 2019,
     15, 1652-1671. DOI: 10.1021/acs.jctc.8b01176
   for GFN1-xTB:
   * S. Grimme, C. Bannwarth, P. Shushkov, J. Chem. Theory Comput., 2017,
     13, 1989-2009. DOI: 10.1021/acs.jctc.7b00118
   for GFN0-xTB:
   * P. Pracht, E. Caldeweyher, S. Ehlert, S. Grimme, ChemRxiv, 2019, preprint.
     DOI: 10.26434/chemrxiv.8326202.v1
   for GFN-FF:
   * S. Spicher and S. Grimme, Angew. Chem. Int. Ed., 2020, 59, 15665-15673.
     DOI: 10.1002/anie.202004239
   
   for ALPB and GBSA implicit solvation:
   * S. Ehlert, M. Stahn, S. Spicher, S. Grimme, J. Chem. Theory Comput.,
     2021, 17, 4250-4261. DOI: 10.1021/acs.jctc.1c00471
   
   for ddCOSMO and CPCM-X implicit solvation:
   * M. Stahn, S. Ehlert, S. Grimme, J. Phys. Chem. A,
     2023, XX, XXXX-XXXX. DOI: 10.1021/acs.jpca.3c04382
   
   for DFT-D4:
   * E. Caldeweyher, C. Bannwarth and S. Grimme, J. Chem. Phys., 2017,
     147, 034112. DOI: 10.1063/1.4993215
   * E. Caldeweyher, S. Ehlert, A. Hansen, H. Neugebauer, S. Spicher,
     C. Bannwarth and S. Grimme, J. Chem. Phys., 2019, 150, 154122.
     DOI: 10.1063/1.5090222
   * E. Caldeweyher, J.-M. Mewes, S. Ehlert and S. Grimme, Phys. Chem. Chem. Phys.
     2020, 22, 8499-8512. DOI: 10.1039/D0CP00502A
   
   for sTDA-xTB:
   * S. Grimme and C. Bannwarth, J. Chem. Phys., 2016, 145, 054103.
     DOI: 10.1063/1.4959605
   
   in the mass-spec context:
   * V. Asgeirsson, C. Bauer and S. Grimme, Chem. Sci., 2017, 8, 4879.
     DOI: 10.1039/c7sc00601b
   * J. Koopman and S. Grimme, ACS Omega 2019, 4, 12, 15120-15133.
     DOI: 10.1021/acsomega.9b02011
   
   for metadynamics refer to:
   * S. Grimme, J. Chem. Theory Comput., 2019, 155, 2847-2862
     DOI: 10.1021/acs.jctc.9b00143
   
   for SPH calculations refer to:
   * S. Spicher and S. Grimme, J. Chem. Theory Comput., 2021, 17, 1701-1714
     DOI: 10.1021/acs.jctc.0c01306
   
   for ONIOM refer to:
   * C. Plett, A. Katbashev, S. Ehlert, S. Grimme, M. Bursch,
     Phys. Chem. Chem. Phys., 2023, 25, 17860-17868. DOI: 10.1039/D3CP02178E
   
   for DIPRO refer to:
   * J. Kohn, N. Gildemeister, S. Grimme, D. Fazzi, A. Hansen,
     J. Chem. Phys., 2023, just accepted.
   
   for PTB refer to:
   * S. Grimme, M. Mueller, A. Hansen, J. Chem. Phys., 2023, 158, 124111.
     DOI: 10.1063/5.0137838
   
   with help from (in alphabetical order)
   P. Atkinson, C. Bannwarth, F. Bohle, G. Brandenburg, E. Caldeweyher
   M. Checinski, S. Dohm, S. Ehlert, S. Ehrlich, I. Gerasimov, C. Hölzer
   A. Katbashev, J. Kohn, J. Koopman, C. Lavigne, S. Lehtola, F. März, M. Müller,
   F. Musil, H. Neugebauer, J. Pisarek, C. Plett, P. Pracht, F. Pultar,
   J. Seibert, P. Shushkov, S. Spicher, M. Stahn, M. Steiner, T. Strunk,
   J. Stückrath, T. Rose, and J. Unsleber
   
 * started run on 2026/09/17 at 00:40:29.604     
   ID    Z sym.   atoms
    1    6 C      1-5
    2    8 O      6, 7
    3    1 H      8-15

           -------------------------------------------------
          |                Calculation Setup                |
           -------------------------------------------------

          program call               : C:\ORCA_6.1.1\xtb-6.7.1pre\xtb.exe input.xyz --gfn 2 --chrg 0 --uhf 0 --opt tight --json
          coordinate file            : input.xyz
          omp threads                :                     4


           -------------------------------------------------
          |                 G F N 2 - x T B                 |
           -------------------------------------------------

        Reference                      10.1021/acs.jctc.8b01176
      * Hamiltonian:
        H0-scaling (s, p, d)           1.850000    2.230000    2.230000
        zeta-weighting                 0.500000
      * Dispersion:
        s8                             2.700000
        a1                             0.520000
        a2                             5.000000
        s9                             5.000000
      * Repulsion:
        kExp                           1.500000    1.000000
        rExp                           1.000000
      * Coulomb:
        alpha                          2.000000
        third order                    shell-resolved
        anisotropic                    true
        a3                             3.000000
        a5                             4.000000
        cn-shift                       1.200000
        cn-exp                         4.000000
        max-rad                        5.000000


          ...................................................
          :                      SETUP                      :
          :.................................................:
          :  # basis functions                  36          :
          :  # atomic orbitals                  36          :
          :  # shells                           22          :
          :  # electrons                        40          :
          :  max. iterations                   250          :
          :  Hamiltonian                  GFN2-xTB          :
          :  restarted?                      false          :
          :  GBSA solvation                  false          :
          :  PC potential                    false          :
          :  electronic temp.          300.0000000     K    :
          :  accuracy                    1.0000000          :
          :  -> integral cutoff          0.2500000E+02      :
          :  -> integral neglect         0.1000000E-07      :
          :  -> SCF convergence          0.1000000E-05 Eh   :
          :  -> wf. convergence          0.1000000E-03 e    :
          :  Broyden damping             0.4000000          :
          :  net charge                          0          :
          :  unpaired electrons                  0          :
          ...................................................

 iter      E             dE          RMSdq      gap      omega  full diag
   1    -23.1140135 -0.231140E+02  0.432E+00    5.62       0.0  T
   2    -23.1707669 -0.567534E-01  0.229E+00    4.49       1.0  T
   3    -23.1745935 -0.382662E-02  0.132E+00    5.03       1.0  T
   4    -23.1778917 -0.329820E-02  0.155E-01    4.74       1.0  T
   5    -23.1780525 -0.160877E-03  0.736E-02    4.79       1.0  T
   6    -23.1780564 -0.381703E-05  0.310E-02    4.79       1.0  T
   7    -23.1780579 -0.155014E-05  0.788E-03    4.79       3.3  T
   8    -23.1780580 -0.120763E-06  0.281E-03    4.79       9.2  T
   9    -23.1780580 -0.104162E-07  0.114E-03    4.79      22.6  T
  10    -23.1780581 -0.276244E-08  0.322E-04    4.79      80.2  T
  11    -23.1780581 -0.221668E-09  0.920E-05    4.79     280.6  T

   *** convergence criteria satisfied after 11 iterations ***

         #    Occupation            Energy/Eh            Energy/eV
      -------------------------------------------------------------
         1        2.0000           -0.7433036             -20.2263
       ...           ...                  ...                  ...
        14        2.0000           -0.4966211             -13.5137
        15        2.0000           -0.4942801             -13.4500
        16        2.0000           -0.4823585             -13.1256
        17        2.0000           -0.4678132             -12.7298
        18        2.0000           -0.4657725             -12.6743
        19        2.0000           -0.4440302             -12.0827
        20        2.0000           -0.4168498             -11.3431 (HOMO)
        21                         -0.2409390              -6.5563 (LUMO)
        22                         -0.0065564              -0.1784
        23                          0.0490997               1.3361
        24                          0.0738304               2.0090
        25                          0.0929676               2.5298
       ...                                ...                  ...
        36                          0.5874743              15.9860
      -------------------------------------------------------------
                  HL-Gap            0.1759108 Eh            4.7868 eV
             Fermi-level           -0.3288944 Eh           -8.9497 eV

 SCC (total)                   0 d,  0 h,  0 min,  0.006 sec
 SCC setup                      ...        0 min,  0.002 sec ( 33.331%)
 Dispersion                     ...        0 min,  0.000 sec (  0.000%)
 classical contributions        ...        0 min,  0.000 sec (  0.000%)
 integral evaluation            ...        0 min,  0.000 sec (  0.000%)
 iterations                     ...        0 min,  0.003 sec ( 50.000%)
 molecular gradient             ...        0 min,  0.001 sec ( 16.669%)
 printout                       ...        0 min,  0.000 sec (  0.000%)

         :::::::::::::::::::::::::::::::::::::::::::::::::::::
         ::                     SUMMARY                     ::
         :::::::::::::::::::::::::::::::::::::::::::::::::::::
         :: total energy             -22.936263840191 Eh    ::
         :: gradient norm              0.066762241014 Eh/a0 ::
         :: HOMO-LUMO gap              4.786777074326 eV    ::
         ::.................................................::
         :: SCC energy               -23.178042447015 Eh    ::
         :: -> isotropic ES            0.045853086105 Eh    ::
         :: -> anisotropic ES          0.002800590693 Eh    ::
         :: -> anisotropic XC          0.004897556748 Eh    ::
         :: -> dispersion             -0.008979283722 Eh    ::
         :: repulsion energy           0.241778606825 Eh    ::
         :: add. restraining           0.000000000000 Eh    ::
         :: total charge              -0.000000000000 e     ::
         :::::::::::::::::::::::::::::::::::::::::::::::::::::

      ----------------------------------------------------------- 
     |                   =====================                   |
     |                        A N C O P T                        |
     |                   =====================                   |
     |               Approximate Normal Coordinate               |
     |                Rational Function Optimizer                |
      ----------------------------------------------------------- 
      ----------------------------------------------------------- 
     |                   =====================                   |
     |                        A N C O P T                        |
     |                   =====================                   |
     |               Approximate Normal Coordinate               |
     |                Rational Function Optimizer                |
      ----------------------------------------------------------- 

          ...................................................
          :                      SETUP                      :
          :.................................................:
          :   optimization level             tight          :
          :   max. optcycles                   200          :
          :   ANC micro-cycles                  20          :
          :   degrees of freedom                39          :
          :.................................................:
          :   RF solver                   davidson          :
          :   write xtbopt.log                true          :
          :   linear?                        false          :
          :   energy convergence         0.1000000E-05 Eh   :
          :   grad. convergence          0.8000000E-03 Eh/α :
          :   maxmium RF displ.          1.0000000          :
          :   Hlow (freq-cutoff)         0.1000000E-01      :
          :   Hmax (freq-cutoff)         5.0000000          :
          :   S6 in model hess.         20.0000000          :
          ...................................................

generating ANC from exact Hessian ...
Using Lindh-Hessian (1995)
 Shifting diagonal of input Hessian by   1.786174924152756E-003
 Lowest  eigenvalues of input Hessian
    0.000000    0.000000    0.000000    0.000000    0.000000    0.000000
    0.010000    0.011230    0.014486    0.020523    0.035458    0.049292
    0.052959    0.056073    0.058275    0.059131    0.065753    0.072001
 Highest eigenvalues
    1.230180    1.289142    1.326781    1.390396    1.630366    2.263812
 

........................................................................
.............................. CYCLE    1 ..............................
........................................................................

 iter      E             dE          RMSdq      gap      omega  full diag
   1    -23.1780581 -0.231781E+02  0.320E-05    4.79       0.0  T
   2    -23.1780581 -0.136779E-11  0.193E-05    4.79    1338.4  T
   3    -23.1780581 -0.117240E-12  0.793E-06    4.79    3255.9  T
     SCC iter.                  ...        0 min,  0.001 sec
     gradient                   ...        0 min,  0.001 sec
 * total energy  :   -22.9362638 Eh     change       -0.1411493E-10 Eh
   gradient norm :     0.0667614 Eh/α   predicted     0.0000000E+00 (-100.00%)
   displ. norm   :     0.1890417 α      lambda       -0.5137004E-02
   maximum displ.:     0.0844242 α      in ANC's #3, #13, #11, ...

........................................................................
.............................. CYCLE    2 ..............................
........................................................................

 iter      E             dE          RMSdq      gap      omega  full diag
   1    -23.1881396 -0.231881E+02  0.226E-01    5.03       0.0  T
   2    -23.1882004 -0.607119E-04  0.141E-01    5.01       1.0  T
   3    -23.1881975  0.281504E-05  0.416E-02    5.03       1.0  T
   4    -23.1882055 -0.798982E-05  0.621E-03    5.02       4.2  T
   5    -23.1882058 -0.223735E-06  0.389E-03    5.02       6.6  T
   6    -23.1882058 -0.300657E-07  0.121E-03    5.02      21.3  T
   7    -23.1882058 -0.137531E-08  0.573E-04    5.02      45.0  T
   8    -23.1882058 -0.452744E-09  0.113E-04    5.02     227.6  T
     SCC iter.                  ...        0 min,  0.002 sec
     gradient                   ...        0 min,  0.001 sec
 * total energy  :   -22.9394477 Eh     change       -0.3183820E-02 Eh
   gradient norm :     0.0199182 Eh/α   predicted    -0.2660295E-02 ( -16.44%)
   displ. norm   :     0.1262055 α      lambda       -0.8268285E-03
   maximum displ.:     0.0882493 α      in ANC's #1, #3, #14, ...

........................................................................
.............................. CYCLE    3 ..............................
........................................................................

 iter      E             dE          RMSdq      gap      omega  full diag
   1    -23.1910340 -0.231910E+02  0.853E-02    5.11       0.0  T
   2    -23.1910445 -0.105344E-04  0.541E-02    5.10       1.0  T
   3    -23.1910443  0.168349E-06  0.193E-02    5.10       1.3  T
   4    -23.1910457 -0.135708E-05  0.320E-03    5.10       8.1  T
   5    -23.1910457 -0.329667E-07  0.204E-03    5.10      12.6  T
   6    -23.1910457 -0.658794E-08  0.653E-04    5.10      39.5  T
   7    -23.1910457 -0.437495E-09  0.251E-04    5.10     102.7  T
     SCC iter.                  ...        0 min,  0.001 sec
     gradient                   ...        0 min,  0.001 sec
 * total energy  :   -22.9399207 Eh     change       -0.4730563E-03 Eh
   gradient norm :     0.0069665 Eh/α   predicted    -0.4200012E-03 ( -11.22%)
   displ. norm   :     0.1134980 α      lambda       -0.1843120E-03
   maximum displ.:     0.1006589 α      in ANC's #1, #3, #2, ...

........................................................................
.............................. CYCLE    4 ..............................
........................................................................

 iter      E             dE          RMSdq      gap      omega  full diag
   1    -23.1906861 -0.231907E+02  0.529E-02    5.10       0.0  T
   2    -23.1906886 -0.252449E-05  0.317E-02    5.10       1.0  T
   3    -23.1906887 -0.214383E-07  0.751E-03    5.10       3.4  T
   4    -23.1906887 -0.774672E-07  0.161E-03    5.10      16.1  T
   5    -23.1906888 -0.170004E-07  0.855E-04    5.10      30.2  T
   6    -23.1906888 -0.522114E-09  0.133E-04    5.10     194.4  T
     SCC iter.                  ...        0 min,  0.001 sec
     gradient                   ...        0 min,  0.001 sec
 * total energy  :   -22.9400429 Eh     change       -0.1221453E-03 Eh
   gradient norm :     0.0039772 Eh/α   predicted    -0.9334416E-04 ( -23.58%)
   displ. norm   :     0.1034247 α      lambda       -0.1028665E-03
   maximum displ.:     0.0906366 α      in ANC's #1, #3, #6, ...

........................................................................
.............................. CYCLE    5 ..............................
........................................................................

 iter      E             dE          RMSdq      gap      omega  full diag
   1    -23.1902065 -0.231902E+02  0.467E-02    5.10       0.0  T
   2    -23.1902076 -0.107258E-05  0.276E-02    5.09       1.0  T
   3    -23.1902076 -0.366401E-07  0.446E-03    5.09       5.8  T
   4    -23.1902077 -0.520858E-07  0.124E-03    5.09      20.8  T
   5    -23.1902077 -0.504478E-08  0.709E-04    5.09      36.4  T
   6    -23.1902077 -0.317574E-09  0.161E-04    5.09     160.3  T
     SCC iter.                  ...        0 min,  0.001 sec
     gradient                   ...        0 min,  0.001 sec
 * total energy  :   -22.9401200 Eh     change       -0.7718792E-04 Eh
   gradient norm :     0.0024992 Eh/α   predicted    -0.5198186E-04 ( -32.66%)
   displ. norm   :     0.0997458 α      lambda       -0.6745028E-04
   maximum displ.:     0.0890460 α      in ANC's #1, #2, #3, ...

........................................................................
.............................. CYCLE    6 ..............................
........................................................................

 iter      E             dE          RMSdq      gap      omega  full diag
   1    -23.1902503 -0.231903E+02  0.422E-02    5.09       0.0  T
   2    -23.1902507 -0.374671E-06  0.252E-02    5.09       1.0  T
   3    -23.1902507  0.326226E-07  0.361E-03    5.09       7.2  T
   4    -23.1902508 -0.112161E-06  0.105E-03    5.09      24.5  T
   5    -23.1902508 -0.154780E-08  0.573E-04    5.09      45.0  T
   6    -23.1902508 -0.249010E-09  0.125E-04    5.09     206.0  T
     SCC iter.                  ...        0 min,  0.001 sec
     gradient                   ...        0 min,  0.001 sec
 * total energy  :   -22.9401723 Eh     change       -0.5220694E-04 Eh
   gradient norm :     0.0019550 Eh/α   predicted    -0.3406140E-04 ( -34.76%)
   displ. norm   :     0.1232534 α      lambda       -0.3700204E-04
   maximum displ.:     0.1083602 α      in ANC's #1, #2, #3, ...

........................................................................
.............................. CYCLE    7 ..............................
........................................................................

 iter      E             dE          RMSdq      gap      omega  full diag
   1    -23.1905596 -0.231906E+02  0.463E-02    5.10       0.0  T
   2    -23.1905599 -0.303274E-06  0.277E-02    5.10       1.0  T
   3    -23.1905598  0.515019E-07  0.371E-03    5.10       7.0  T
   4    -23.1905600 -0.137938E-06  0.109E-03    5.10      23.7  T
   5    -23.1905600 -0.743615E-09  0.487E-04    5.10      53.0  T
   6    -23.1905600 -0.429356E-09  0.113E-04    5.10     228.1  T
     SCC iter.                  ...        0 min,  0.001 sec
     gradient                   ...        0 min,  0.001 sec
 * total energy  :   -22.9402108 Eh     change       -0.3853710E-04 Eh
   gradient norm :     0.0011866 Eh/α   predicted    -0.1862458E-04 ( -51.67%)
   displ. norm   :     0.0703924 α      lambda       -0.1417720E-04
   maximum displ.:     0.0603148 α      in ANC's #1, #2, #4, ...

........................................................................
.............................. CYCLE    8 ..............................
........................................................................

 iter      E             dE          RMSdq      gap      omega  full diag
   1    -23.1907202 -0.231907E+02  0.230E-02    5.10       0.0  T
   2    -23.1907202 -0.609329E-07  0.136E-02    5.10       1.9  T
   3    -23.1907202  0.624195E-08  0.152E-03    5.10      16.9  T
   4    -23.1907203 -0.217387E-07  0.487E-04    5.10      53.0  T
   5    -23.1907203 -0.283212E-09  0.225E-04    5.10     114.6  T
     SCC iter.                  ...        0 min,  0.001 sec
     gradient                   ...        0 min,  0.001 sec
 * total energy  :   -22.9402281 Eh     change       -0.1728582E-04 Eh
   gradient norm :     0.0008964 Eh/α   predicted    -0.7104427E-05 ( -58.90%)
   displ. norm   :     0.0722523 α      lambda       -0.1172270E-04
   maximum displ.:     0.0598455 α      in ANC's #1, #4, #2, ...

........................................................................
.............................. CYCLE    9 ..............................
........................................................................

 iter      E             dE          RMSdq      gap      omega  full diag
   1    -23.1907752 -0.231908E+02  0.247E-02    5.10       0.0  T
   2    -23.1907752 -0.444785E-07  0.146E-02    5.10       1.8  T
   3    -23.1907753 -0.824433E-08  0.936E-04    5.10      27.6  T
   4    -23.1907753 -0.466931E-08  0.430E-04    5.10      60.0  T
     SCC iter.                  ...        0 min,  0.001 sec
     gradient                   ...        0 min,  0.001 sec
 * total energy  :   -22.9402414 Eh     change       -0.1336640E-04 Eh
   gradient norm :     0.0005699 Eh/α   predicted    -0.5874791E-05 ( -56.05%)
   displ. norm   :     0.0624216 α      lambda       -0.6332759E-05
   maximum displ.:     0.0515740 α      in ANC's #1, #4, #2, ...

........................................................................
.............................. CYCLE   10 ..............................
........................................................................

 iter      E             dE          RMSdq      gap      omega  full diag
   1    -23.1907346 -0.231907E+02  0.208E-02    5.11       0.0  T
   2    -23.1907347 -0.303667E-07  0.123E-02    5.11       2.1  T
   3    -23.1907347 -0.653494E-08  0.747E-04    5.11      34.5  T
   4    -23.1907347 -0.285383E-08  0.362E-04    5.11      71.3  T
     SCC iter.                  ...        0 min,  0.001 sec
     gradient                   ...        0 min,  0.001 sec
 * total energy  :   -22.9402479 Eh     change       -0.6463247E-05 Eh
   gradient norm :     0.0004380 Eh/α   predicted    -0.3171303E-05 ( -50.93%)
   displ. norm   :     0.0358785 α      lambda       -0.2086373E-05
   maximum displ.:     0.0306342 α      in ANC's #1, #4, #3, ...

........................................................................
.............................. CYCLE   11 ..............................
........................................................................

 iter      E             dE          RMSdq      gap      omega  full diag
   1    -23.1907629 -0.231908E+02  0.123E-02    5.11       0.0  T
   2    -23.1907629 -0.947929E-08  0.727E-03    5.11       3.6  T
   3    -23.1907629 -0.162397E-08  0.457E-04    5.11      56.5  T
   4    -23.1907629 -0.118809E-08  0.205E-04    5.11     125.8  T
     SCC iter.                  ...        0 min,  0.001 sec
     gradient                   ...        0 min,  0.001 sec
 * total energy  :   -22.9402499 Eh     change       -0.2002021E-05 Eh
   gradient norm :     0.0002804 Eh/α   predicted    -0.1043385E-05 ( -47.88%)
   displ. norm   :     0.0176304 α      lambda       -0.6778334E-06
   maximum displ.:     0.0151101 α      in ANC's #1, #4, #3, ...

........................................................................
.............................. CYCLE   12 ..............................
........................................................................

 iter      E             dE          RMSdq      gap      omega  full diag
   1    -23.1907763 -0.231908E+02  0.559E-03    5.11       0.0  T
   2    -23.1907763 -0.752516E-08  0.331E-03    5.11       7.8  T
   3    -23.1907763  0.567695E-09  0.445E-04    5.11      58.0  T
   4    -23.1907763 -0.126862E-08  0.112E-04    5.11     230.4  T
     SCC iter.                  ...        0 min,  0.000 sec
     gradient                   ...        0 min,  0.001 sec
 * total energy  :   -22.9402506 Eh     change       -0.7307128E-06 Eh
   gradient norm :     0.0001570 Eh/α   predicted    -0.3376566E-06 ( -53.79%)
   displ. norm   :     0.0114199 α      lambda       -0.3525462E-06
   maximum displ.:     0.0088644 α      in ANC's #1, #2, #3, ...

   *** GEOMETRY OPTIMIZATION CONVERGED AFTER 12 ITERATIONS ***

------------------------------------------------------------------------
 total energy gain   :        -0.0039868 Eh       -2.5018 kcal/mol
 total RMSD          :         0.2244872 a0        0.1188 Å
 total power (kW/mol):        -0.8722789 (step) -232.6073 (real)
------------------------------------------------------------------------

 ANCopt (total)                0 d,  0 h,  0 min,  0.045 sec
 optimizer setup                ...        0 min,  0.000 sec (  0.000%)
 model hessian                  ...        0 min,  0.003 sec (  6.667%)
 ANC generation                 ...        0 min,  0.000 sec (  0.000%)
 coordinate transformation      ...        0 min,  0.000 sec (  0.000%)
 single point calculation       ...        0 min,  0.029 sec ( 64.444%)
 optimization log               ...        0 min,  0.012 sec ( 26.666%)
 hessian update                 ...        0 min,  0.000 sec (  0.000%)
 rational function              ...        0 min,  0.001 sec (  2.223%)

================
 final structure:
================
15
 xtb: 6.7.1pre (5071a88)
C           -1.96827592444881       -0.33531872246038        0.00445856900755
C           -0.61702087211376       -0.15301182942136        0.67611696228117
C            0.22954381738000        0.98591784486144        0.08252292320382
C            1.64962017993002        0.44531950171482        0.18503005704781
C            1.44387163093201       -1.06351038573786        0.23317657962215
O            2.27297207825143       -1.90919176908944        0.07037776089652
O            0.16399003058990       -1.33794114263796        0.50705813843256
H           -2.48971972441647       -1.18125969782472        0.44301389892113
H           -1.83488390354679       -0.52406377463657       -1.05786936174918
H           -2.56776356844559        0.56114884930444        0.13699114285116
H           -0.75606033191080       -0.00978065562371        1.75709077615638
H           -0.04526141907399        1.14139148752696       -0.96185713079001
H            0.08287728854568        1.91765885581102        0.62369689258135
H            2.14018934027419        0.74463156441241        1.11342853836075
H            2.29592237805306        0.71800987380089       -0.64595074682314
 
 Bond Distances (Angstroems)
 ---------------------------
C1-C2=1.5200         C1-H8=1.0862         C1-H9=1.0872         C1-H10=1.0866        C2-C1=1.5200         C2-C3=1.5382         
C2-O7=1.4292         C2-H11=1.0993        C3-C2=1.5382         C3-C4=1.5229         C3-H12=1.0911        C3-H13=1.0874        
C4-C3=1.5229         C4-C5=1.5236         C4-H14=1.0919        C4-H15=1.0875        C5-C4=1.5236         C5-O6=1.1954         
C5-O7=1.3373         O6-C5=1.1954         O7-C2=1.4292         O7-C5=1.3373         H8-C1=1.0862         H9-C1=1.0872         
H10-C1=1.0866        H11-C2=1.0993        H12-C3=1.0911        H13-C3=1.0874        H14-C4=1.0919        H15-C4=1.0875        
 C  H  Rav=1.0896 sigma=0.0041  Rmin=1.0862  Rmax=1.0993     8
 C  C  Rav=1.5262 sigma=0.0071  Rmin=1.5200  Rmax=1.5382     4
 O  C  Rav=1.3207 sigma=0.0962  Rmin=1.1954  Rmax=1.4292     3
 
 selected bond angles (degree)
 --------------------
H8-C1-C2=109.99                H9-C1-C2=110.09                H9-C1-H8=108.55                H10-C1-C2=109.73               
H10-C1-H8=109.17               H10-C1-H9=109.28               C3-C2-C1=114.05                O7-C2-C1=109.52                
O7-C2-C3=105.51                H11-C2-C1=109.74               H11-C2-C3=110.65               H11-C2-O7=107.07               
C4-C3-C2=102.97                H12-C3-C2=109.65               H12-C3-C4=110.48               H13-C3-C2=111.60               
H13-C3-C4=113.35               H13-C3-H12=108.68              C5-C4-C3=103.16                H14-C4-C3=112.26               
H14-C4-C5=107.78               H15-C4-C3=114.44               H15-C4-C5=110.66               H15-C4-H14=108.30              
O6-C5-C4=127.06                O7-C5-C4=109.81                O7-C5-O6=123.13                C5-O7-C2=112.15                
 
 selected dihedral angles (degree)
 ---------------------------------
C3-C2-C1-H8=177.45            C3-C2-C1-H9= 57.87            C3-C2-C1-H10=297.57           O7-C2-C1-H8= 59.48            
O7-C2-C1-H9=299.91            O7-C2-C1-H10=179.60           H11-C2-C1-H8=302.23           H11-C2-C1-H9=182.65           
H11-C2-C1-H10= 62.34          C4-C3-C2-C1=215.48            C4-C3-C2-O7=335.71            C4-C3-C2-H11= 91.19           
H12-C3-C2-C1=333.09           H12-C3-C2-O7= 93.32           H12-C3-C2-H11=208.80          H13-C3-C2-C1= 93.56           
H13-C3-C2-O7=213.80           H13-C3-C2-H11=329.27          C5-C4-C3-C2= 23.40            C5-C4-C3-H12=266.37           
C5-C4-C3-H13=144.12           H14-C4-C3-C2=267.64           H14-C4-C3-H12=150.62          H14-C4-C3-H13= 28.36          
H15-C4-C3-C2=143.68           H15-C4-C3-H12= 26.65          H15-C4-C3-H13=264.40          O6-C5-C4-C3=165.24            
O6-C5-C4-H14=284.16           O6-C5-C4-H15= 42.40           O7-C5-C4-C3=344.55            O7-C5-C4-H14=103.47           
O7-C5-C4-H15=221.71           C5-O7-C2-C1=139.01            C5-O7-C2-C3= 15.84            C5-O7-C2-H11=257.94           
C2-O7-C5-C4=359.76            C2-O7-C5-O6=179.10            
           -------------------------------------------------
          |                Final Singlepoint                |
           -------------------------------------------------

          ...................................................
          :                      SETUP                      :
          :.................................................:
          :  # basis functions                  36          :
          :  # atomic orbitals                  36          :
          :  # shells                           22          :
          :  # electrons                        40          :
          :  max. iterations                   250          :
          :  Hamiltonian                  GFN2-xTB          :
          :  restarted?                      false          :
          :  GBSA solvation                  false          :
          :  PC potential                    false          :
          :  electronic temp.          300.0000000     K    :
          :  accuracy                    1.0000000          :
          :  -> integral cutoff          0.2500000E+02      :
          :  -> integral neglect         0.1000000E-07      :
          :  -> SCF convergence          0.1000000E-05 Eh   :
          :  -> wf. convergence          0.1000000E-03 e    :
          :  Broyden damping             0.4000000          :
          :  net charge                          0          :
          :  unpaired electrons                  0          :
          ...................................................

 iter      E             dE          RMSdq      gap      omega  full diag
   1    -23.1907763 -0.231908E+02  0.538E-05    5.11       0.0  T
   2    -23.1907763 -0.132871E-11  0.322E-05    5.11     801.9  T
   3    -23.1907763  0.603961E-13  0.917E-06    5.11    2816.5  T

   *** convergence criteria satisfied after 3 iterations ***

         #    Occupation            Energy/Eh            Energy/eV
      -------------------------------------------------------------
         1        2.0000           -0.7463636             -20.3096
       ...           ...                  ...                  ...
        14        2.0000           -0.4974613             -13.5366
        15        2.0000           -0.4935232             -13.4294
        16        2.0000           -0.4823648             -13.1258
        17        2.0000           -0.4671808             -12.7126
        18        2.0000           -0.4650051             -12.6534
        19        2.0000           -0.4422068             -12.0331
        20        2.0000           -0.4151058             -11.2956 (HOMO)
        21                         -0.2274331              -6.1888 (LUMO)
        22                         -0.0068189              -0.1856
        23                          0.0550465               1.4979
        24                          0.0575048               1.5648
        25                          0.0906008               2.4654
       ...                                ...                  ...
        36                          0.6665015              18.1364
      -------------------------------------------------------------
                  HL-Gap            0.1876727 Eh            5.1068 eV
             Fermi-level           -0.3212695 Eh           -8.7422 eV

 SCC (total)                   0 d,  0 h,  0 min,  0.002 sec
 SCC setup                      ...        0 min,  0.000 sec (  0.000%)
 Dispersion                     ...        0 min,  0.000 sec (  0.000%)
 classical contributions        ...        0 min,  0.000 sec (  0.000%)
 integral evaluation            ...        0 min,  0.000 sec (  0.000%)
 iterations                     ...        0 min,  0.001 sec ( 50.000%)
 molecular gradient             ...        0 min,  0.001 sec ( 50.000%)
 printout                       ...        0 min,  0.000 sec (  0.000%)

         :::::::::::::::::::::::::::::::::::::::::::::::::::::
         ::                     SUMMARY                     ::
         :::::::::::::::::::::::::::::::::::::::::::::::::::::
         :: total energy             -22.940250642088 Eh    ::
         :: gradient norm              0.000158104395 Eh/a0 ::
         :: HOMO-LUMO gap              5.106833450917 eV    ::
         ::.................................................::
         :: SCC energy               -23.190759543344 Eh    ::
         :: -> isotropic ES            0.045034032729 Eh    ::
         :: -> anisotropic ES          0.002444332607 Eh    ::
         :: -> anisotropic XC          0.004554935730 Eh    ::
         :: -> dispersion             -0.008970515413 Eh    ::
         :: repulsion energy           0.250508901256 Eh    ::
         :: add. restraining           0.000000000000 Eh    ::
         :: total charge              -0.000000000000 e     ::
         :::::::::::::::::::::::::::::::::::::::::::::::::::::

           -------------------------------------------------
          |                Property Printout                |
           -------------------------------------------------

    * Orbital Energies and Occupations

         #    Occupation            Energy/Eh            Energy/eV
      -------------------------------------------------------------
         1        2.0000           -0.7463636             -20.3096
       ...           ...                  ...                  ...
         8        2.0000           -0.5924525             -16.1215
         9        2.0000           -0.5591795             -15.2160
        10        2.0000           -0.5498244             -14.9615
        11        2.0000           -0.5303031             -14.4303
        12        2.0000           -0.5238054             -14.2535
        13        2.0000           -0.5124331             -13.9440
        14        2.0000           -0.4974613             -13.5366
        15        2.0000           -0.4935232             -13.4294
        16        2.0000           -0.4823648             -13.1258
        17        2.0000           -0.4671808             -12.7126
        18        2.0000           -0.4650051             -12.6534
        19        2.0000           -0.4422068             -12.0331
        20        2.0000           -0.4151058             -11.2956 (HOMO)
        21                         -0.2274331              -6.1888 (LUMO)
        22                         -0.0068189              -0.1856
        23                          0.0550465               1.4979
        24                          0.0575048               1.5648
        25                          0.0906008               2.4654
        26                          0.1068887               2.9086
        27                          0.1198019               3.2600
        28                          0.1450475               3.9469
        29                          0.1602342               4.3602
        30                          0.1806088               4.9146
        31                          0.2106297               5.7315
       ...                                ...                  ...
        36                          0.6665015              18.1364
      -------------------------------------------------------------
                  HL-Gap            0.1876727 Eh            5.1068 eV
             Fermi-level           -0.3212695 Eh           -8.7422 eV

     #   Z          covCN         q      C6AA      α(0)
     1   6 C        3.752    -0.118    22.829     6.814
     2   6 C        3.795     0.110    18.790     6.173
     3   6 C        3.820    -0.072    21.868     6.655
     4   6 C        3.819    -0.097    22.330     6.725
     5   6 C        2.761     0.360    20.899     7.487
     6   8 O        0.856    -0.380    21.279     6.185
     7   8 O        1.705    -0.258    18.278     5.772
     8   1 H        0.925     0.064     2.154     2.295
     9   1 H        0.925     0.059     2.212     2.326
    10   1 H        0.925     0.053     2.288     2.365
    11   1 H        0.923     0.042     2.418     2.432
    12   1 H        0.924     0.053     2.284     2.363
    13   1 H        0.925     0.049     2.337     2.390
    14   1 H        0.924     0.067     2.113     2.273
    15   1 H        0.925     0.069     2.092     2.262

 Mol. C6AA /au·bohr⁶  :       1920.391858
 Mol. C8AA /au·bohr⁸  :      42104.392328
 Mol. α(0) /au        :         64.516883


Wiberg/Mayer (AO) data.
largest (>0.10) Wiberg bond orders for each atom

 ---------------------------------------------------------------------------
     #   Z sym  total        # sym  WBO       # sym  WBO       # sym  WBO
 ---------------------------------------------------------------------------
     1   6 C    3.991 --     2 C    1.009     9 H    0.984    10 H    0.983
                             8 H    0.983
     2   6 C    3.931 --     1 C    1.009     3 C    0.984    11 H    0.962
                             7 O    0.937
     3   6 C    3.995 --     4 C    1.013     2 C    0.984    13 H    0.980
                            12 H    0.977
     4   6 C    3.996 --     3 C    1.013    15 H    0.967     5 C    0.957
                            14 H    0.954
     5   6 C    3.918 --     6 O    1.780     7 O    1.130     4 C    0.957
     6   8 O    2.069 --     5 C    1.780     7 O    0.166
     7   8 O    2.316 --     5 C    1.130     2 C    0.937     6 O    0.166
     8   1 H    0.996 --     1 C    0.983
     9   1 H    0.997 --     1 C    0.984
    10   1 H    0.996 --     1 C    0.983
    11   1 H    0.998 --     2 C    0.962
    12   1 H    0.997 --     3 C    0.977
    13   1 H    0.998 --     3 C    0.980
    14   1 H    0.995 --     4 C    0.954
    15   1 H    0.995 --     4 C    0.967
 ---------------------------------------------------------------------------

Topologies differ in total number of bonds
Writing topology from bond orders to xtbtopo.mol

molecular dipole:
                 x           y           z       tot (Debye)
 q only:       -0.993       1.460       0.063
   full:       -1.058       1.680       0.135       5.058
molecular quadrupole (traceless):
                xx          xy          yy          xz          yz          zz
 q only:        0.327       7.458      -4.140      -0.027       0.741       3.813
  q+dip:       -1.886       9.574      -5.305       0.162       0.937       7.191
   full:       -1.470       9.298      -5.500       0.371       0.887       6.970

           -------------------------------------------------
          |                Geometry Summary                 |
           -------------------------------------------------

      molecular mass/u    :      100.1160153
   center of mass at/Å    :        0.4459908      -0.4994831       0.2481791
  moments of inertia/u·Å² :        0.9573256E+02   0.2270562E+03   0.2990233E+03
rotational constants/cm⁻¹ :        0.1760909E+00   0.7424433E-01   0.5637564E-01

 * 14 selected distances

     #   Z          #   Z                                           value/Å
     1   6 C        2   6 C                                       1.5199511
     2   6 C        3   6 C                                       1.5382415 (max)
     3   6 C        4   6 C                                       1.5229483
     5   6 C        6   8 O                                       1.1954448
     2   6 C        7   8 O                                       1.4292014
     5   6 C        7   8 O                                       1.3373184
     1   6 C        8   1 H                                       1.0862094 (min)
     1   6 C        9   1 H                                       1.0871794
     1   6 C       10   1 H                                       1.0865563
     2   6 C       11   1 H                                       1.0992505
     3   6 C       12   1 H                                       1.0910637
     3   6 C       13   1 H                                       1.0874382
     4   6 C       14   1 H                                       1.0918653
     4   6 C       15   1 H                                       1.0874722

 * 3 distinct bonds (by element types)

   Z      Z             #   av. dist./Å        max./Å        min./Å
   1 H    6 C           8     1.0896294     1.0992505     1.0862094
   6 C    6 C           3     1.5270470     1.5382415     1.5199511
   6 C    8 O           3     1.3206549     1.4292014     1.1954448


optimized geometry written to: xtbopt.xyz


           -------------------------------------------------
          | TOTAL ENERGY              -22.940250642088 Eh   |
          | GRADIENT NORM               0.000158104395 Eh/α |
          | HOMO-LUMO GAP               5.106833450917 eV   |
           -------------------------------------------------

------------------------------------------------------------------------
 * finished run on 2026/09/17 at 00:40:29.683     
------------------------------------------------------------------------
 total:
 * wall-time:     0 d,  0 h,  0 min,  0.077 sec
 *  cpu-time:     0 d,  0 h,  0 min,  0.297 sec
 * ratio c/w:     3.856 speedup
 SCF:
 * wall-time:     0 d,  0 h,  0 min,  0.006 sec
 *  cpu-time:     0 d,  0 h,  0 min,  0.000 sec
 * ratio c/w:     0.000 speedup
 ANC optimizer:
 * wall-time:     0 d,  0 h,  0 min,  0.051 sec
 *  cpu-time:     0 d,  0 h,  0 min,  0.172 sec
 * ratio c/w:     3.370 speedup

