15
 energy: -22.940250642088 gnorm: 0.000158104395 xtb: 6.7.1pre (5071a88)
C           -1.96827592444881       -0.33531872246038        0.00445856900755
C           -0.61702087211376       -0.15301182942136        0.67611696228117
C            0.22954381738000        0.98591784486144        0.08252292320382
C            1.64962017993002        0.44531950171482        0.18503005704781
C            1.44387163093201       -1.06351038573786        0.23317657962215
O            2.27297207825143       -1.90919176908944        0.07037776089652
O            0.16399003058990       -1.33794114263796        0.50705813843256
H           -2.48971972441647       -1.18125969782472        0.44301389892113
H           -1.83488390354679       -0.52406377463657       -1.05786936174918
H           -2.56776356844559        0.56114884930444        0.13699114285116
H           -0.75606033191080       -0.00978065562371        1.75709077615638
H           -0.04526141907399        1.14139148752696       -0.96185713079001
H            0.08287728854568        1.91765885581102        0.62369689258135
H            2.14018934027419        0.74463156441241        1.11342853836075
H            2.29592237805306        0.71800987380089       -0.64595074682314
