24
Coordinates from ORCA-job optfreq E -314.399852381228
  C       2.969865     -0.447940     -0.191702
  C       1.909995      0.615431      0.072829
  C       0.511306      0.040557      0.322282
  C      -0.080088     -0.599748     -0.934730
  C      -1.477954     -1.150216     -0.665992
  C      -2.404777     -0.046693     -0.167941
  C      -1.828445      0.592324      1.090832
  C      -0.430772      1.140198      0.819280
  H       3.000217     -1.166936      0.624308
  H       2.768190     -0.984013     -1.115336
  H       3.951273      0.013391     -0.277550
  H       1.868537      1.304743     -0.773974
  H       2.207963      1.193216      0.951664
  H       0.586898     -0.727608      1.100988
  H       0.563816     -1.409538     -1.281296
  H      -0.132650      0.150753     -1.727518
  H      -1.417191     -1.938392      0.088522
  H      -1.882014     -1.593167     -1.579157
  H      -3.396113     -0.455487      0.039608
  H      -2.511990      0.714623     -0.944266
  H      -1.775958     -0.156582      1.884812
  H      -2.481537      1.397770      1.434176
  H      -0.491372      1.927167      0.063348
  H      -0.027200      1.586149      1.731513
24
Coordinates from ORCA-job optfreq E -314.400918736303
  C       2.986306     -0.446932     -0.203637
  C       1.920709      0.615331      0.079461
  C       0.515583      0.046777      0.325005
  C      -0.076946     -0.611163     -0.928815
  C      -1.486813     -1.154782     -0.672009
  C      -2.419536     -0.051436     -0.166777
  C      -1.843021      0.603811      1.090819
  C      -0.434051      1.144001      0.827479
  H       3.021298     -1.183723      0.606013
  H       2.786581     -0.977831     -1.138879
  H       3.976052      0.012739     -0.286587
  H       1.876145      1.322811     -0.759915
  H       2.222065      1.191073      0.964873
  H       0.591270     -0.722259      1.110952
  H       0.570791     -1.426311     -1.273135
  H      -0.117530      0.137189     -1.733705
  H      -1.432901     -1.952475      0.081599
  H      -1.889410     -1.601075     -1.589978
  H      -3.415587     -0.461805      0.040959
  H      -2.537082      0.709729     -0.950656
  H      -1.798318     -0.141641      1.896701
  H      -2.499182      1.414225      1.432464
  H      -0.488146      1.939154      0.069667
  H      -0.028278      1.594595      1.742798
24
Coordinates from ORCA-job optfreq E -314.401024062312
  C       2.985058     -0.444878     -0.214111
  C       1.921588      0.614385      0.086190
  C       0.516433      0.048866      0.328853
  C      -0.073258     -0.617656     -0.921827
  C      -1.486261     -1.156322     -0.671789
  C      -2.420792     -0.053807     -0.167269
  C      -1.846694      0.609782      1.087376
  C      -0.434775      1.144868      0.829411
  H       3.021776     -1.195076      0.584484
  H       2.785809     -0.965192     -1.156378
  H       3.977557      0.011032     -0.292835
  H       1.875030      1.335963     -0.742602
  H       2.226132      1.182471      0.976207
  H       0.590834     -0.718487      1.118779
  H       0.575448     -1.433846     -1.262979
  H      -0.106343      0.127180     -1.732489
  H      -1.436648     -1.956809      0.080898
  H      -1.885954     -1.605331     -1.589894
  H      -3.417653     -0.463559      0.039395
  H      -2.542944      0.704854     -0.954622
  H      -1.807767     -0.130865      1.899606
  H      -2.503112      1.421645      1.425521
  H      -0.483989      1.941903      0.071027
  H      -0.029474      1.598879      1.743746
24
Coordinates from ORCA-job optfreq E -314.401050743643
  C       2.982104     -0.442230     -0.222883
  C       1.921160      0.613209      0.091970
  C       0.516400      0.049014      0.332284
  C      -0.070833     -0.622675     -0.916006
  C      -1.484860     -1.157335     -0.669546
  C      -2.419654     -0.054810     -0.168186
  C      -1.847913      0.613582      1.083952
  C      -0.435212      1.145047      0.829110
  H       3.018237     -1.204928      0.563899
  H       2.784815     -0.950281     -1.172106
  H       3.976327      0.010754     -0.294749
  H       1.873449      1.346492     -0.726745
  H       2.228356      1.173017      0.986347
  H       0.589157     -0.716352      1.124870
  H       0.577815     -1.439812     -1.254082
  H      -0.098612      0.118749     -1.730554
  H      -1.438398     -1.958328      0.083158
  H      -1.882506     -1.609078     -1.586974
  H      -3.417066     -0.463337      0.037416
  H      -2.543550      0.701446     -0.957872
  H      -1.813354     -0.122988      1.900386
  H      -2.504275      1.426555      1.418849
  H      -0.480900      1.942109      0.070078
  H      -0.030688      1.602181      1.742083
24
Coordinates from ORCA-job optfreq E -314.401054972678
  C       2.980390     -0.440844     -0.227331
  C       1.920899      0.612668      0.094895
  C       0.516188      0.048549      0.334211
  C      -0.069819     -0.624801     -0.913414
  C      -1.483928     -1.158024     -0.667529
  C      -2.418638     -0.054877     -0.168988
  C      -1.848200      0.614980      1.082411
  C      -0.435565      1.145367      0.828265
  H       3.014984     -1.210603      0.552479
  H       2.784557     -0.940929     -1.180919
  H       3.975434      0.010842     -0.293982
  H       1.872760      1.351414     -0.718746
  H       2.229499      1.167411      0.991892
  H       0.587990     -0.715708      1.127778
  H       0.578685     -1.442678     -1.249582
  H      -0.095730      0.114878     -1.729494
  H      -1.438658     -1.958243      0.085947
  H      -1.880792     -1.611446     -1.584413
  H      -3.416413     -0.462653      0.035967
  H      -2.542041      0.700207     -0.959705
  H      -1.815327     -0.119848      1.900345
  H      -2.504644      1.428553      1.415520
  H      -0.479997      1.941616      0.068504
  H      -0.031631      1.604172      1.740588
24
Coordinates from ORCA-job optfreq E -314.401056542954
  C       2.979252     -0.439932     -0.230883
  C       1.920879      0.612404      0.097213
  C       0.516035      0.048183      0.335828
  C      -0.069003     -0.626279     -0.911586
  C      -1.483224     -1.158795     -0.665748
  C      -2.417985     -0.054827     -0.169753
  C      -1.848565      0.615974      1.081457
  C      -0.435937      1.145925      0.827492
  H       3.011940     -1.215637      0.543057
  H       2.784606     -0.932847     -1.188388
  H       3.975023      0.010774     -0.292611
  H       1.872374      1.355053     -0.712735
  H       2.230617      1.162812      0.996480
  H       0.587127     -0.715216      1.130064
  H       0.579458     -1.444905     -1.245940
  H      -0.093858      0.112073     -1.728753
  H      -1.438675     -1.957963      0.088776
  H      -1.879553     -1.613614     -1.582199
  H      -3.416093     -0.462054      0.034647
  H      -2.540366      0.699416     -0.961293
  H      -1.816669     -0.117763      1.900280
  H      -2.505169      1.430043      1.413091
  H      -0.479681      1.941137      0.066804
  H      -0.032535      1.606038      1.739399
