24
Coordinates from ORCA-job optfreq E -314.401056542954
  C           2.97925248124566     -0.43993243830054     -0.23088326052730
  C           1.92087899304277      0.61240423054120      0.09721285645178
  C           0.51603531450643      0.04818332884082      0.33582777868319
  C          -0.06900296020468     -0.62627919007402     -0.91158591971189
  C          -1.48322368128045     -1.15879488213012     -0.66574779246162
  C          -2.41798481523460     -0.05482658877932     -0.16975317978569
  C          -1.84856522046669      0.61597427186848      1.08145733040652
  C          -0.43593706519818      1.14592490152214      0.82749161539909
  H           3.01194015705289     -1.21563732488017      0.54305723933509
  H           2.78460646311098     -0.93284685480066     -1.18838843661434
  H           3.97502312876151      0.01077443769522     -0.29261096085530
  H           1.87237354207846      1.35505282811157     -0.71273458352013
  H           2.23061692048551      1.16281196582697      0.99648047045425
  H           0.58712720026117     -0.71521638819146      1.13006447933799
  H           0.57945822394868     -1.44490457932258     -1.24594039813796
  H          -0.09385780833181      0.11207272201026     -1.72875346505565
  H          -1.43867490883693     -1.95796299441283      0.08877614205627
  H          -1.87955344919036     -1.61361415304186     -1.58219875517145
  H          -3.41609254575933     -0.46205408358667      0.03464717478541
  H          -2.54036637937999      0.69941589140819     -0.96129331849460
  H          -1.81666886916152     -0.11776254252271      1.90027957143110
  H          -2.50516855314451      1.43004339439566      1.41309144964179
  H          -0.47968069606295      1.94113677831340      0.06680388943201
  H          -0.03253547224210      1.60603826950881      1.73939907292159
