21
Coordinates from ORCA-job optfreq E -536.410903045857
  C      -2.915171     -0.276109      2.179498
  O      -1.894044     -0.945646      1.485749
  C      -1.009433     -0.202364      0.764404
  C      -0.013803     -0.924601      0.094280
  C       0.942142     -0.251981     -0.673357
  C       0.911138      1.130308     -0.776143
  C      -0.075933      1.833921     -0.110650
  C      -1.028178      1.183064      0.652274
  O       1.864465     -1.080524     -1.279638
  C       2.862571     -0.488612     -2.071087
  O       0.015350     -2.281402      0.196116
  H      -3.491260     -1.055374      2.676102
  H      -3.570307      0.278809      1.499207
  H      -2.511058      0.409149      2.932522
  H       1.641873      1.660461     -1.364388
  H      -0.103386      2.909866     -0.188202
  H      -1.783168      1.762543      1.157540
  H       3.491652      0.187356     -1.483406
  H       2.432337      0.057009     -2.916806
  H       3.469509     -1.312146     -2.444739
  H       0.764701     -2.593728     -0.329276
21
Coordinates from ORCA-job optfreq E -536.411738919249
  C      -2.913047     -0.272808      2.176965
  O      -1.887513     -0.957219      1.483105
  C      -1.006016     -0.210711      0.764049
  C      -0.011985     -0.934483      0.094797
  C       0.940964     -0.256276     -0.671916
  C       0.915077      1.130699     -0.779133
  C      -0.076510      1.837092     -0.110101
  C      -1.031584      1.180233      0.656140
  O       1.857598     -1.085868     -1.274313
  C       2.862027     -0.485022     -2.071501
  O       0.012013     -2.292251      0.200472
  H      -3.499379     -1.044550      2.679494
  H      -3.565427      0.286108      1.490807
  H      -2.504939      0.417115      2.929486
  H       1.651309      1.660860     -1.372230
  H      -0.105670      2.918992     -0.187373
  H      -1.793598      1.757525      1.166631
  H       3.491243      0.194894     -1.480950
  H       2.428435      0.064871     -2.918024
  H       3.476081     -1.303977     -2.451549
  H       0.760919     -2.605223     -0.324856
21
Coordinates from ORCA-job optfreq E -536.411819476758
  C      -2.913158     -0.273172      2.176695
  O      -1.884184     -0.961368      1.482018
  C      -1.004452     -0.211313      0.763511
  C      -0.011102     -0.935959      0.094587
  C       0.940567     -0.255661     -0.671759
  C       0.916618      1.133016     -0.780643
  C      -0.076643      1.839747     -0.110015
  C      -1.032747      1.181737      0.657493
  O       1.854696     -1.087244     -1.272285
  C       2.862978     -0.485169     -2.072467
  O       0.009683     -2.293745      0.202760
  H      -3.500947     -1.043326      2.679780
  H      -3.563164      0.285418      1.488288
  H      -2.503713      0.417072      2.927959
  H       1.653164      1.661807     -1.374196
  H      -0.106376      2.922011     -0.186858
  H      -1.795357      1.756890      1.168944
  H       3.490557      0.194749     -1.480479
  H       2.427513      0.064914     -2.917685
  H       3.477422     -1.303300     -2.453082
  H       0.758643     -2.607104     -0.322566
21
Coordinates from ORCA-job optfreq E -536.411829095949
  C      -2.913434     -0.272876      2.176559
  O      -1.883223     -0.962345      1.482198
  C      -1.003970     -0.210985      0.763593
  C      -0.010761     -0.936039      0.094618
  C       0.940560     -0.255384     -0.671750
  C       0.916831      1.133425     -0.780852
  C      -0.076683      1.839682     -0.109798
  C      -1.032943      1.182236      0.658039
  O       1.854293     -1.087684     -1.272102
  C       2.863424     -0.484932     -2.073091
  O       0.009152     -2.293634      0.203481
  H      -3.501102     -1.043114      2.679178
  H      -3.561643      0.284940      1.486422
  H      -2.502926      0.416985      2.927055
  H       1.653187      1.661766     -1.374440
  H      -0.106550      2.921783     -0.186536
  H      -1.795388      1.756879      1.169622
  H       3.489462      0.194600     -1.479689
  H       2.426096      0.064735     -2.917156
  H       3.477362     -1.303233     -2.453391
  H       0.758251     -2.606804     -0.321961
21
Coordinates from ORCA-job optfreq E -536.411831753419
  C      -2.913761     -0.272616      2.176680
  O      -1.882858     -0.962513      1.482578
  C      -1.003873     -0.210524      0.763716
  C      -0.010699     -0.935819      0.094605
  C       0.940560     -0.255241     -0.671852
  C       0.916751      1.133467     -0.780909
  C      -0.076668      1.839293     -0.109759
  C      -1.032950      1.182546      0.658238
  O       1.854316     -1.087920     -1.272250
  C       2.863772     -0.484698     -2.073454
  O       0.009073     -2.293287      0.203602
  H      -3.500994     -1.043500      2.678592
  H      -3.560786      0.284632      1.485289
  H      -2.502431      0.416702      2.926940
  H       1.652999      1.661664     -1.374524
  H      -0.106515      2.921334     -0.186506
  H      -1.795161      1.757220      1.169845
  H       3.488717      0.194476     -1.478834
  H       2.425088      0.064516     -2.916870
  H       3.477129     -1.303526     -2.453203
  H       0.758288     -2.606206     -0.321926
21
Coordinates from ORCA-job optfreq E -536.411831963269
  C      -2.913987     -0.272507      2.176563
  O      -1.882655     -0.962419      1.482992
  C      -1.003740     -0.210428      0.764039
  C      -0.010610     -0.935725      0.094806
  C       0.940605     -0.255280     -0.671818
  C       0.916692      1.133391     -0.780852
  C      -0.076564      1.839142     -0.109652
  C      -1.032765      1.182548      0.658468
  O       1.854330     -1.087983     -1.272381
  C       2.863724     -0.484593     -2.073649
  O       0.009324     -2.293190      0.203694
  H      -3.501108     -1.043654      2.678209
  H      -3.560658      0.284386      1.484569
  H      -2.502797      0.416843      2.926865
  H       1.652859      1.661621     -1.374589
  H      -0.106405      2.921207     -0.186449
  H      -1.794869      1.757364      1.170119
  H       3.488551      0.194465     -1.478790
  H       2.424700      0.064488     -2.916965
  H       3.476859     -1.303654     -2.453268
  H       0.758511     -2.606022     -0.321910
