 Entering Gaussian System
 *********************************************
 Gaussian 98:
 frequency output generated by the xtb code
 *********************************************
                         Standard orientation:
 --------------------------------------------------------------------
  Center     Atomic     Atomic              Coordinates (Angstroms)
  Number     Number      Type              X           Y           Z
 --------------------------------------------------------------------
    1          6             0       -1.198716   -0.158043   -1.315868
    2          6             0       -1.216258    0.864562   -0.175735
    3          6             0       -0.350021    0.346394    0.980014
    4          6             0        1.045459    0.003287    0.456255
    5          6             0        0.918973   -0.976129   -0.722386
    6          8             0        0.112101   -0.449179   -1.741138
    7          8             0        2.187774   -1.203087   -1.240520
    8          8             0        1.789551   -0.556449    1.509229
    9          8             0       -0.303716    1.339465    1.975090
   10          8             0       -2.544028    1.055781    0.229932
   11          1             0       -1.720331    0.238023   -2.186814
   12          1             0       -1.706316   -1.071616   -0.975843
   13          1             0       -0.779814    1.813308   -0.526968
   14          1             0       -0.803555   -0.571907    1.389396
   15          1             0        1.531363    0.918973    0.083539
   16          1             0        0.477621   -1.926761   -0.348217
   17          1             0        2.089269   -1.399492   -2.179362
   18          1             0        2.604436   -0.911970    1.134655
   19          1             0        0.383908    1.084052    2.601824
   20          1             0       -2.517699    1.560789    1.052916
 --------------------------------------------------------------------
     1 basis functions        1 primitive gaussians
     1 alpha electrons        1 beta electrons
 
 Harmonic frequencies (cm**-1), IR intensities (km*mol⁻¹),
 Raman scattering activities (A**4/amu), Raman depolarization ratios,
 reduced masses (AMU), force constants (mDyne/A) and normal coordinates:
                      1                      2                      3
                        a                      a                      a 
 Frequencies --    91.7076                96.1885               178.1149
 Red. masses --    13.3149                14.4373                 3.4996
 Frc consts  --     0.0000                 0.0000                 0.0000
 IR Inten    --     1.4962                 1.2819               120.3937
 Raman Activ --     0.0000                 0.0000                 0.0000
 Depolar     --     0.0000                 0.0000                 0.0000
 Atom AN      X      Y      Z        X      Y      Z        X      Y      Z
   1   6     0.09   0.28  -0.17     0.06   0.09  -0.05     0.03   0.01  -0.00
   2   6    -0.03   0.06   0.04    -0.09  -0.02   0.04     0.01   0.00  -0.00
   3   6     0.01  -0.02  -0.01     0.06   0.15   0.02    -0.00   0.01   0.01
   4   6     0.01   0.10  -0.08     0.02  -0.07   0.05     0.02   0.01   0.05
   5   6    -0.11  -0.01   0.04    -0.02   0.05  -0.04     0.02  -0.05   0.06
   6   8     0.13   0.20  -0.04     0.11   0.26  -0.03     0.06  -0.02   0.09
   7   8    -0.16  -0.52   0.20    -0.01  -0.06   0.03    -0.08  -0.28  -0.19
   8   8     0.23   0.36  -0.12    -0.21  -0.35   0.08     0.03   0.10   0.10
   9   8    -0.06  -0.15   0.12     0.25   0.44  -0.25    -0.07   0.03  -0.00
  10   8    -0.08  -0.27   0.04    -0.15  -0.48   0.14     0.00  -0.02  -0.04
  11   1     0.08   0.15  -0.05     0.02   0.04  -0.01     0.03   0.01  -0.01
  12   1    -0.02   0.08  -0.12     0.04   0.00  -0.04    -0.00   0.01  -0.01
  13   1    -0.05   0.06   0.07    -0.10   0.03   0.03     0.00   0.00   0.00
  14   1     0.02  -0.03  -0.03     0.01   0.08   0.08     0.00   0.00   0.00
  15   1    -0.04   0.03  -0.07     0.06  -0.03   0.05     0.00   0.00   0.01
  16   1    -0.12   0.04   0.02    -0.04   0.02  -0.04     0.02  -0.01   0.03
  17   1    -0.03  -0.16   0.05     0.01   0.01   0.00    -0.03   0.87  -0.24
  18   1     0.03   0.06  -0.06    -0.06  -0.12   0.03    -0.04  -0.08   0.02
  19   1     0.01  -0.03  -0.00     0.04   0.12  -0.04    -0.02   0.01   0.01
  20   1    -0.05  -0.10   0.03    -0.07  -0.09   0.01    -0.01  -0.01  -0.00
                      4                      5                      6
                        a                      a                      a 
 Frequencies --   218.7627               229.5009               253.4608
 Red. masses --    13.0811                12.4376                11.2813
 Frc consts  --     0.0000                 0.0000                 0.0000
 IR Inten    --     0.8224                17.5064                 2.5963
 Raman Activ --     0.0000                 0.0000                 0.0000
 Depolar     --     0.0000                 0.0000                 0.0000
 Atom AN      X      Y      Z        X      Y      Z        X      Y      Z
   1   6    -0.02  -0.16   0.02     0.03  -0.00   0.07    -0.02   0.35  -0.22
   2   6     0.04  -0.14  -0.02    -0.01  -0.03   0.11     0.09   0.11  -0.01
   3   6     0.04  -0.02   0.04    -0.10  -0.02   0.24     0.02   0.02  -0.01
   4   6     0.09   0.07   0.07    -0.18  -0.05   0.02    -0.01  -0.03   0.03
   5   6    -0.03   0.14  -0.00    -0.12  -0.01   0.01    -0.04  -0.12   0.11
   6   8     0.05   0.21  -0.04    -0.02  -0.03  -0.05    -0.13  -0.52   0.00
   7   8    -0.04  -0.13   0.13     0.03   0.12   0.33     0.04   0.27   0.10
   8   8     0.29  -0.27  -0.25     0.29  -0.15  -0.38     0.11  -0.11  -0.09
   9   8    -0.55   0.20  -0.14     0.23   0.09   0.16    -0.18   0.12  -0.08
  10   8     0.16   0.13   0.18    -0.17  -0.00  -0.41     0.12  -0.15   0.19
  11   1    -0.06  -0.08   0.02    -0.01   0.02   0.04     0.15   0.24  -0.09
  12   1     0.07  -0.08   0.02     0.01  -0.00   0.01    -0.21   0.18  -0.16
  13   1     0.04  -0.06  -0.04     0.03  -0.02   0.05    -0.00   0.07   0.07
  14   1     0.04  -0.02   0.02    -0.04   0.02   0.11    -0.01   0.01  -0.01
  15   1     0.03   0.03   0.05    -0.10   0.00  -0.01     0.00  -0.02  -0.01
  16   1    -0.06   0.06   0.01    -0.02  -0.02  -0.02     0.07  -0.06   0.07
  17   1     0.01  -0.00   0.02     0.09   0.18   0.04     0.02   0.07   0.02
  18   1     0.01  -0.12  -0.16    -0.01  -0.08  -0.23     0.01  -0.03  -0.06
  19   1    -0.23   0.11   0.08     0.11   0.04  -0.01    -0.09   0.05   0.03
  20   1     0.12   0.02   0.05    -0.15   0.09  -0.16     0.04  -0.11   0.09
                      7                      8                      9
                        a                      a                      a 
 Frequencies --   284.5553               299.9183               373.8683
 Red. masses --    11.9301                10.8628                 3.2999
 Frc consts  --     0.0000                 0.0000                 0.0000
 IR Inten    --    16.6453                 4.7005                60.0415
 Raman Activ --     0.0000                 0.0000                 0.0000
 Depolar     --     0.0000                 0.0000                 0.0000
 Atom AN      X      Y      Z        X      Y      Z        X      Y      Z
   1   6     0.05   0.05   0.12     0.00  -0.10   0.09     0.05   0.04   0.09
   2   6     0.11   0.12   0.02    -0.01   0.20  -0.12    -0.04   0.10   0.05
   3   6     0.13   0.19   0.08     0.09   0.28  -0.19    -0.03   0.05  -0.01
   4   6     0.21   0.16   0.08     0.05   0.28  -0.18    -0.06  -0.07  -0.09
   5   6     0.04   0.12   0.08     0.02   0.15  -0.03     0.04  -0.11  -0.09
   6   8    -0.07  -0.14   0.08    -0.06  -0.18  -0.12     0.02  -0.02  -0.04
   7   8    -0.19  -0.05  -0.39     0.13  -0.09   0.30     0.15  -0.10   0.06
   8   8     0.08  -0.18   0.05    -0.28  -0.11  -0.21    -0.07  -0.04  -0.12
   9   8    -0.16   0.06   0.27     0.05  -0.16   0.25     0.07   0.09  -0.05
  10   8    -0.05  -0.24  -0.40     0.02  -0.09   0.13    -0.06  -0.05   0.14
  11   1    -0.00   0.00   0.04    -0.06  -0.13   0.02    -0.01  -0.02   0.02
  12   1    -0.01   0.04   0.08     0.05  -0.02   0.14     0.03   0.01   0.06
  13   1    -0.00   0.05   0.01    -0.08   0.07  -0.09    -0.04   0.04   0.02
  14   1     0.05   0.03  -0.02     0.04   0.03  -0.13    -0.03   0.03  -0.01
  15   1     0.10   0.03   0.06     0.08   0.06  -0.02    -0.03  -0.02  -0.04
  16   1     0.02   0.06   0.10     0.00   0.07   0.07     0.02  -0.04  -0.04
  17   1    -0.18  -0.20  -0.04     0.10   0.13   0.04     0.08   0.07  -0.01
  18   1     0.02  -0.04   0.01    -0.16  -0.23  -0.07     0.19   0.40   0.04
  19   1    -0.15  -0.05   0.16     0.03  -0.12   0.02    -0.48  -0.35   0.38
  20   1    -0.15   0.03  -0.15     0.02  -0.12   0.09    -0.03   0.29  -0.15
                     10                     11                     12
                        a                      a                      a 
 Frequencies --   386.1725               396.8703               415.4418
 Red. masses --    10.7570                 8.2747                 8.1723
 Frc consts  --     0.0000                 0.0000                 0.0000
 IR Inten    --    31.7377                43.6898                13.7838
 Raman Activ --     0.0000                 0.0000                 0.0000
 Depolar     --     0.0000                 0.0000                 0.0000
 Atom AN      X      Y      Z        X      Y      Z        X      Y      Z
   1   6     0.10  -0.08  -0.02    -0.15  -0.07  -0.23    -0.15  -0.06  -0.07
   2   6     0.29  -0.15   0.06     0.09  -0.22  -0.11    -0.04   0.05  -0.20
   3   6     0.02   0.01   0.24     0.11  -0.07  -0.03     0.06   0.03  -0.20
   4   6    -0.15   0.04  -0.01     0.10   0.13   0.08     0.13   0.01   0.12
   5   6    -0.17   0.05  -0.15    -0.17   0.21   0.09    -0.12   0.09   0.17
   6   8    -0.03  -0.06  -0.36    -0.11   0.04  -0.09    -0.08   0.13   0.17
   7   8    -0.16   0.00   0.03    -0.23   0.14   0.18    -0.20   0.12   0.19
   8   8    -0.27   0.06   0.00    -0.01   0.06   0.14     0.20  -0.21   0.04
   9   8    -0.03   0.15   0.21     0.19  -0.12  -0.03     0.20  -0.12  -0.13
  10   8     0.36  -0.11  -0.08     0.21  -0.18   0.06    -0.02   0.03  -0.17
  11   1    -0.05   0.01   0.06    -0.01   0.05  -0.05    -0.04  -0.06  -0.04
  12   1     0.06  -0.03   0.01    -0.07  -0.03  -0.13    -0.02  -0.02   0.01
  13   1     0.11  -0.05   0.02     0.04  -0.08  -0.06    -0.03   0.01  -0.09
  14   1     0.02   0.01   0.10     0.05  -0.03  -0.01    -0.01   0.00  -0.09
  15   1    -0.05   0.02  -0.00     0.04   0.04   0.05     0.06  -0.01   0.05
  16   1    -0.07   0.03  -0.05    -0.07   0.08   0.05    -0.05   0.04   0.06
  17   1    -0.01   0.07  -0.01    -0.04   0.08   0.03    -0.05   0.11   0.03
  18   1     0.11   0.34   0.09    -0.07  -0.14   0.03     0.24   0.36   0.04
  19   1     0.03   0.09   0.03    -0.04  -0.13   0.05    -0.05  -0.15   0.03
  20   1     0.09  -0.25   0.12     0.07   0.48  -0.30     0.01  -0.39   0.21
                     13                     14                     15
                        a                      a                      a 
 Frequencies --   437.8454               451.7159               498.0598
 Red. masses --     5.2418                 9.1504                11.3934
 Frc consts  --     0.0000                 0.0000                 0.0000
 IR Inten    --   341.3965                77.5252                18.2123
 Raman Activ --     0.0000                 0.0000                 0.0000
 Depolar     --     0.0000                 0.0000                 0.0000
 Atom AN      X      Y      Z        X      Y      Z        X      Y      Z
   1   6    -0.03   0.02  -0.08    -0.05  -0.03  -0.17    -0.21   0.19   0.25
   2   6    -0.12  -0.05   0.02    -0.15  -0.31   0.16     0.10   0.01   0.24
   3   6     0.02   0.01  -0.01    -0.01  -0.13   0.16     0.22  -0.20  -0.03
   4   6     0.08   0.18  -0.00     0.06   0.27  -0.00     0.23   0.00  -0.10
   5   6     0.12   0.12   0.05     0.16   0.24   0.03     0.01   0.07  -0.18
   6   8     0.02  -0.10   0.02     0.02  -0.15  -0.06    -0.36   0.05  -0.08
   7   8     0.10  -0.16  -0.00     0.10  -0.15  -0.07     0.18  -0.09   0.21
   8   8    -0.11  -0.28  -0.12    -0.13  -0.01  -0.04    -0.04   0.04   0.14
   9   8    -0.11  -0.06   0.10     0.23   0.08  -0.04    -0.11  -0.08  -0.28
  10   8    -0.13   0.06   0.11    -0.20   0.29  -0.05    -0.02  -0.03  -0.22
  11   1     0.05   0.05  -0.04     0.09   0.14  -0.05    -0.11   0.09   0.12
  12   1    -0.05   0.01  -0.08    -0.10  -0.02  -0.22    -0.08   0.08   0.10
  13   1    -0.04  -0.01  -0.00     0.03  -0.11   0.07     0.06   0.01   0.14
  14   1     0.06  -0.02  -0.00     0.10  -0.05   0.12     0.15  -0.09   0.00
  15   1     0.04   0.07   0.06    -0.01   0.12   0.10     0.09  -0.01  -0.01
  16   1     0.04   0.06   0.09     0.05   0.10   0.11    -0.00   0.03  -0.05
  17   1    -0.00   0.05  -0.02    -0.03  -0.05  -0.01     0.17   0.07   0.02
  18   1     0.24   0.46   0.05    -0.07  -0.09  -0.01     0.02  -0.01   0.13
  19   1     0.35   0.26  -0.27    -0.18  -0.15   0.18    -0.02   0.10  -0.03
  20   1    -0.02   0.29  -0.14    -0.00  -0.21   0.16    -0.12  -0.04  -0.03
                     16                     17                     18
                        a                      a                      a 
 Frequencies --   527.5266               578.3034               629.4530
 Red. masses --    12.8207                10.8057                12.8222
 Frc consts  --     0.0000                 0.0000                 0.0000
 IR Inten    --    10.4704                18.0510                11.4628
 Raman Activ --     0.0000                 0.0000                 0.0000
 Depolar     --     0.0000                 0.0000                 0.0000
 Atom AN      X      Y      Z        X      Y      Z        X      Y      Z
   1   6    -0.19  -0.08  -0.23    -0.02  -0.07  -0.05     0.38   0.01   0.05
   2   6    -0.16  -0.04  -0.11    -0.03  -0.22   0.09    -0.10   0.04   0.16
   3   6     0.09   0.24   0.04     0.31   0.13  -0.02     0.14  -0.06  -0.04
   4   6     0.15  -0.18   0.09     0.16  -0.04  -0.32     0.16   0.01  -0.04
   5   6    -0.02  -0.09  -0.23    -0.11  -0.33   0.08    -0.18  -0.01   0.01
   6   8    -0.13  -0.01  -0.32     0.11   0.18   0.31     0.24  -0.24  -0.35
   7   8     0.16  -0.06   0.03    -0.09   0.18   0.06    -0.34   0.19   0.09
   8   8     0.29   0.00   0.31    -0.23   0.03  -0.19     0.07  -0.02   0.12
   9   8    -0.05   0.13   0.38    -0.11   0.04   0.18    -0.03  -0.09  -0.15
  10   8    -0.19   0.10   0.04    -0.03   0.08  -0.09    -0.31   0.17   0.10
  11   1    -0.05   0.01  -0.06     0.10   0.10  -0.02     0.01  -0.09   0.04
  12   1    -0.05  -0.04  -0.11    -0.06  -0.04  -0.17     0.20  -0.02   0.10
  13   1    -0.08  -0.02  -0.10     0.00  -0.08  -0.03    -0.06   0.05   0.11
  14   1     0.01   0.07   0.01     0.22  -0.02   0.02     0.11  -0.06  -0.01
  15   1     0.10  -0.10  -0.01     0.14  -0.12  -0.24     0.10  -0.04  -0.03
  16   1    -0.02  -0.04  -0.13    -0.02  -0.11  -0.03    -0.09   0.02   0.02
  17   1     0.14   0.01  -0.01     0.01   0.03   0.01    -0.08   0.05   0.02
  18   1     0.06  -0.04   0.09    -0.01   0.00   0.06     0.03  -0.02   0.07
  19   1     0.01   0.02   0.06    -0.03   0.05   0.07    -0.01   0.03  -0.01
  20   1    -0.00  -0.01   0.03    -0.01  -0.01  -0.00    -0.07   0.05   0.02
                     19                     20                     21
                        a                      a                      a 
 Frequencies --   893.5626               986.8791              1007.9420
 Red. masses --     6.8991                 9.6143                 9.1980
 Frc consts  --     0.0000                 0.0000                 0.0000
 IR Inten    --     7.4878                64.4490                46.3494
 Raman Activ --     0.0000                 0.0000                 0.0000
 Depolar     --     0.0000                 0.0000                 0.0000
 Atom AN      X      Y      Z        X      Y      Z        X      Y      Z
   1   6     0.21  -0.10   0.40    -0.27   0.09  -0.05    -0.17  -0.32  -0.05
   2   6     0.01  -0.21   0.15     0.06  -0.08   0.19     0.19   0.30   0.13
   3   6    -0.12   0.32  -0.23     0.05   0.21  -0.07     0.31   0.03   0.06
   4   6    -0.09   0.01   0.04    -0.12   0.14   0.16    -0.12  -0.37   0.05
   5   6    -0.04   0.06  -0.13     0.10  -0.31   0.40     0.11   0.31   0.06
   6   8    -0.03  -0.01  -0.03     0.11   0.10  -0.36     0.11  -0.03  -0.05
   7   8    -0.05  -0.01   0.01     0.16   0.01  -0.05    -0.01  -0.03   0.04
   8   8     0.10  -0.03   0.09    -0.01  -0.03   0.00    -0.09   0.11  -0.11
   9   8    -0.04  -0.08  -0.09    -0.02  -0.10  -0.10    -0.02  -0.11  -0.08
  10   8     0.04   0.01  -0.02     0.03   0.01  -0.01    -0.09   0.02   0.05
  11   1     0.21   0.40   0.21    -0.33   0.08   0.17     0.10   0.07  -0.03
  12   1    -0.15  -0.05  -0.28     0.08  -0.05  -0.00    -0.14  -0.08  -0.18
  13   1    -0.04  -0.11  -0.18     0.02  -0.03   0.02    -0.02   0.05  -0.10
  14   1    -0.11   0.08  -0.13     0.06   0.01  -0.05    -0.09   0.04  -0.08
  15   1     0.03  -0.01   0.04     0.03  -0.04  -0.05    -0.08  -0.06   0.01
  16   1    -0.03   0.02  -0.05     0.05  -0.09   0.06     0.01   0.07  -0.03
  17   1     0.05  -0.00  -0.00    -0.25   0.01   0.01    -0.18   0.01   0.02
  18   1     0.00   0.02  -0.05    -0.05   0.04  -0.16    -0.02   0.02  -0.01
  19   1     0.03  -0.15  -0.12     0.01  -0.08  -0.06    -0.05   0.19   0.11
  20   1     0.01  -0.00  -0.00    -0.10  -0.00   0.00    -0.29  -0.00   0.02
                     22                     23                     24
                        a                      a                      a 
 Frequencies --  1023.9222              1042.4254              1073.5801
 Red. masses --     8.7356                 9.0488                 8.3381
 Frc consts  --     0.0000                 0.0000                 0.0000
 IR Inten    --    22.1300                22.0602                51.6533
 Raman Activ --     0.0000                 0.0000                 0.0000
 Depolar     --     0.0000                 0.0000                 0.0000
 Atom AN      X      Y      Z        X      Y      Z        X      Y      Z
   1   6     0.01  -0.20  -0.12    -0.19  -0.26  -0.10     0.02   0.03  -0.24
   2   6     0.09   0.18   0.10     0.09   0.24   0.25    -0.06  -0.16   0.33
   3   6     0.17   0.06   0.09    -0.43  -0.04   0.06    -0.01   0.29  -0.18
   4   6    -0.12   0.38   0.29     0.24   0.17  -0.29    -0.22  -0.19  -0.07
   5   6    -0.29  -0.26  -0.22     0.04  -0.13  -0.03    -0.09   0.32  -0.05
   6   8     0.03   0.02   0.12     0.15   0.03  -0.03    -0.02  -0.10   0.19
   7   8     0.05  -0.01  -0.12    -0.10   0.05   0.04     0.08  -0.05  -0.03
   8   8    -0.01  -0.03   0.10     0.09  -0.09   0.05     0.07  -0.01   0.09
   9   8     0.02  -0.14  -0.15    -0.02   0.09  -0.01    -0.07  -0.01  -0.02
  10   8    -0.01   0.01   0.03     0.14  -0.02   0.03     0.18   0.03  -0.03
  11   1     0.12  -0.07  -0.11     0.01   0.01  -0.03    -0.01  -0.22  -0.16
  12   1    -0.04  -0.03  -0.06    -0.07  -0.08  -0.12     0.11   0.00   0.10
  13   1     0.01   0.05   0.03     0.11   0.04   0.11     0.06   0.02   0.31
  14   1     0.12  -0.05  -0.03    -0.19   0.02  -0.02     0.15   0.04   0.05
  15   1    -0.02   0.11   0.13     0.06   0.04  -0.07     0.09  -0.15  -0.09
  16   1    -0.04  -0.09  -0.08    -0.01   0.01   0.07     0.00   0.05  -0.03
  17   1     0.33  -0.05  -0.05     0.05   0.01   0.00     0.01  -0.01  -0.01
  18   1    -0.09   0.08  -0.25     0.10  -0.09   0.25    -0.02   0.04  -0.09
  19   1    -0.02   0.05   0.02     0.04  -0.15  -0.11     0.04  -0.23  -0.16
  20   1    -0.17   0.00   0.01    -0.27  -0.00   0.02    -0.13   0.01  -0.00
                     25                     26                     27
                        a                      a                      a 
 Frequencies --  1104.6934              1111.0892              1119.8856
 Red. masses --    12.5113                10.1938                11.3466
 Frc consts  --     0.0000                 0.0000                 0.0000
 IR Inten    --    70.5299               129.7331                85.9499
 Raman Activ --     0.0000                 0.0000                 0.0000
 Depolar     --     0.0000                 0.0000                 0.0000
 Atom AN      X      Y      Z        X      Y      Z        X      Y      Z
   1   6    -0.39   0.11   0.17    -0.03   0.07  -0.10     0.29  -0.19  -0.08
   2   6    -0.21   0.01   0.07     0.36  -0.21   0.05    -0.07   0.07   0.12
   3   6     0.11  -0.18  -0.31    -0.03  -0.06  -0.28     0.04  -0.21  -0.37
   4   6    -0.14   0.00  -0.03     0.30  -0.15   0.32    -0.05   0.04   0.06
   5   6     0.14   0.00  -0.23    -0.05  -0.02  -0.06     0.34  -0.18   0.05
   6   8     0.48  -0.14   0.01     0.04  -0.05   0.09    -0.42   0.16  -0.10
   7   8    -0.25   0.03   0.06    -0.06   0.01  -0.03    -0.12   0.01   0.11
   8   8     0.04  -0.02   0.11    -0.17   0.16  -0.26    -0.01  -0.01   0.03
   9   8     0.01   0.17   0.17    -0.03   0.16   0.12     0.02   0.21   0.19
  10   8     0.16  -0.02  -0.08    -0.25   0.05   0.08     0.08   0.02  -0.00
  11   1    -0.07   0.03   0.03    -0.15   0.00   0.06     0.16  -0.04  -0.07
  12   1    -0.08   0.03   0.04     0.08   0.00   0.06    -0.00  -0.03  -0.07
  13   1    -0.03  -0.00   0.02     0.11  -0.05   0.07     0.02   0.06   0.18
  14   1     0.10  -0.06  -0.04    -0.24   0.09  -0.12     0.07  -0.07  -0.10
  15   1    -0.11   0.10   0.14     0.03   0.04   0.18    -0.05   0.05   0.08
  16   1     0.04  -0.01  -0.03    -0.01  -0.00   0.02     0.06  -0.06  -0.06
  17   1     0.09  -0.01   0.00     0.20  -0.02  -0.02    -0.17   0.03   0.03
  18   1    -0.04   0.04  -0.12    -0.03   0.02  -0.02    -0.05   0.03  -0.13
  19   1    -0.00   0.04   0.05     0.04  -0.12  -0.09     0.01   0.04   0.04
  20   1     0.02  -0.00  -0.02    -0.11   0.01   0.02    -0.10   0.01  -0.00
                     28                     29                     30
                        a                      a                      a 
 Frequencies --  1146.6808              1153.1527              1155.3379
 Red. masses --    12.0966                11.2386                 4.8989
 Frc consts  --     0.0000                 0.0000                 0.0000
 IR Inten    --   123.3253                87.2955                12.3563
 Raman Activ --     0.0000                 0.0000                 0.0000
 Depolar     --     0.0000                 0.0000                 0.0000
 Atom AN      X      Y      Z        X      Y      Z        X      Y      Z
   1   6     0.02  -0.03   0.08     0.06  -0.04   0.02    -0.11  -0.15   0.19
   2   6    -0.49   0.15   0.14     0.13   0.02  -0.02     0.17   0.07  -0.21
   3   6    -0.09  -0.12  -0.04     0.04  -0.29  -0.29    -0.16  -0.11  -0.03
   4   6     0.31  -0.12   0.31    -0.18   0.06  -0.23     0.04   0.04   0.13
   5   6    -0.28   0.04   0.13    -0.46   0.11   0.20    -0.07   0.08   0.02
   6   8     0.02  -0.05  -0.09     0.02  -0.00   0.02     0.14   0.02  -0.11
   7   8     0.20  -0.01  -0.09     0.35  -0.02  -0.15     0.09  -0.01   0.00
   8   8    -0.14   0.13  -0.22     0.10  -0.10   0.18    -0.04   0.03  -0.01
   9   8     0.03   0.04   0.03     0.04   0.19   0.18    -0.01   0.11   0.05
  10   8     0.36  -0.03  -0.11    -0.10   0.01   0.04    -0.18  -0.03   0.05
  11   1     0.05   0.01  -0.00    -0.07   0.09   0.11     0.21   0.02  -0.07
  12   1     0.04  -0.08  -0.11     0.05  -0.06  -0.06    -0.32   0.16   0.11
  13   1    -0.14   0.04   0.01     0.05  -0.01  -0.03     0.20   0.03   0.18
  14   1    -0.05  -0.02  -0.02    -0.03  -0.08  -0.15     0.26  -0.13   0.10
  15   1     0.16  -0.09   0.01    -0.10   0.01  -0.12     0.26  -0.20  -0.16
  16   1    -0.11   0.01  -0.02    -0.10   0.09   0.18    -0.08  -0.03  -0.22
  17   1     0.01  -0.01  -0.01     0.01  -0.01  -0.02    -0.20   0.01   0.02
  18   1    -0.02   0.02  -0.01     0.02  -0.01   0.01    -0.06   0.07  -0.17
  19   1    -0.00   0.04   0.03    -0.02   0.12   0.10     0.04  -0.19  -0.12
  20   1     0.02  -0.01  -0.02    -0.06   0.01   0.01     0.11   0.01   0.00
                     31                     32                     33
                        a                      a                      a 
 Frequencies --  1202.8066              1215.7203              1222.1185
 Red. masses --     3.5905                 2.5420                 3.6471
 Frc consts  --     0.0000                 0.0000                 0.0000
 IR Inten    --    53.0731                55.8432                68.8165
 Raman Activ --     0.0000                 0.0000                 0.0000
 Depolar     --     0.0000                 0.0000                 0.0000
 Atom AN      X      Y      Z        X      Y      Z        X      Y      Z
   1   6     0.06   0.09  -0.08     0.04   0.19   0.07    -0.06   0.14  -0.01
   2   6     0.00   0.12  -0.07    -0.05   0.02  -0.08     0.04  -0.22   0.14
   3   6    -0.21  -0.12   0.09     0.06  -0.09  -0.01    -0.06  -0.01   0.00
   4   6    -0.00  -0.00  -0.03    -0.01   0.02   0.07     0.07   0.24   0.03
   5   6     0.15   0.13  -0.05    -0.06  -0.02  -0.05    -0.04   0.04  -0.15
   6   8    -0.06  -0.08   0.11    -0.03  -0.05   0.02     0.04  -0.08   0.08
   7   8    -0.16  -0.03   0.02     0.08  -0.00   0.03     0.07  -0.02   0.08
   8   8    -0.02   0.02   0.10     0.00  -0.00  -0.07     0.01  -0.05   0.05
   9   8     0.05   0.02   0.01    -0.06   0.09   0.03     0.09  -0.03  -0.00
  10   8     0.01  -0.02   0.06     0.08   0.02   0.10     0.02   0.03  -0.01
  11   1    -0.21   0.11   0.15     0.08  -0.09  -0.08     0.09  -0.17  -0.15
  12   1     0.25  -0.16  -0.16     0.10  -0.01  -0.00     0.00   0.06   0.10
  13   1     0.14  -0.11  -0.24     0.13  -0.22  -0.46    -0.07  -0.07  -0.09
  14   1     0.10  -0.15  -0.06     0.24  -0.05   0.18    -0.35   0.01  -0.34
  15   1     0.38  -0.27  -0.16    -0.16   0.11   0.07     0.06  -0.04  -0.20
  16   1     0.14  -0.02  -0.01    -0.03  -0.05  -0.15    -0.01  -0.13  -0.39
  17   1     0.16  -0.01  -0.01    -0.20   0.01   0.02    -0.36   0.03   0.05
  18   1    -0.11   0.12  -0.33     0.05  -0.06   0.16    -0.00   0.01  -0.02
  19   1    -0.02   0.11   0.08     0.05  -0.26  -0.17    -0.04   0.26   0.17
  20   1    -0.16  -0.00   0.02    -0.49  -0.01   0.04    -0.07  -0.00   0.01
                     34                     35                     36
                        a                      a                      a 
 Frequencies --  1240.3977              1266.7162              1280.8199
 Red. masses --     3.5297                 3.9732                 3.9688
 Frc consts  --     0.0000                 0.0000                 0.0000
 IR Inten    --     3.3928                79.3145                89.5819
 Raman Activ --     0.0000                 0.0000                 0.0000
 Depolar     --     0.0000                 0.0000                 0.0000
 Atom AN      X      Y      Z        X      Y      Z        X      Y      Z
   1   6    -0.02   0.10   0.12    -0.02   0.01  -0.02     0.03  -0.02  -0.00
   2   6    -0.04  -0.16   0.02     0.01   0.07  -0.00    -0.08  -0.05  -0.05
   3   6    -0.02   0.02   0.00    -0.06   0.06   0.02    -0.21   0.22  -0.14
   4   6     0.02  -0.09  -0.15     0.06  -0.09  -0.24    -0.17  -0.02   0.11
   5   6     0.06  -0.10   0.15    -0.14  -0.14  -0.23    -0.03  -0.01   0.05
   6   8    -0.01   0.11  -0.21     0.01  -0.02   0.12     0.03   0.02  -0.03
   7   8    -0.02   0.04  -0.06     0.17   0.04   0.09    -0.02  -0.02  -0.02
   8   8    -0.02   0.02   0.08     0.01   0.08   0.05     0.06   0.04  -0.19
   9   8     0.02  -0.05   0.01     0.00  -0.05  -0.01     0.12  -0.11  -0.00
  10   8     0.05   0.02   0.04    -0.05  -0.03  -0.00     0.01  -0.03   0.05
  11   1     0.27  -0.22  -0.24    -0.04   0.02   0.02    -0.01   0.02   0.02
  12   1    -0.19   0.18   0.19     0.12  -0.10  -0.09    -0.07   0.07   0.08
  13   1     0.11  -0.16  -0.17     0.14  -0.02   0.06     0.35  -0.13   0.12
  14   1    -0.17   0.09   0.02    -0.01   0.05   0.09     0.26  -0.15  -0.15
  15   1     0.16  -0.06   0.09     0.24   0.11   0.58     0.12  -0.02   0.21
  16   1    -0.16   0.19   0.36    -0.08   0.04   0.09     0.10  -0.06  -0.02
  17   1     0.20  -0.00  -0.03    -0.45   0.04   0.06     0.09  -0.02  -0.01
  18   1    -0.08   0.09  -0.24    -0.06   0.07  -0.18     0.15  -0.14   0.40
  19   1    -0.03   0.12   0.09    -0.01   0.06   0.04    -0.06   0.35   0.25
  20   1    -0.23  -0.01   0.02     0.11   0.00  -0.01    -0.09   0.00   0.01
                     37                     38                     39
                        a                      a                      a 
 Frequencies --  1296.1769              1303.4926              1309.2709
 Red. masses --     3.0813                 2.9400                 3.5278
 Frc consts  --     0.0000                 0.0000                 0.0000
 IR Inten    --    11.0507                23.1297                93.3629
 Raman Activ --     0.0000                 0.0000                 0.0000
 Depolar     --     0.0000                 0.0000                 0.0000
 Atom AN      X      Y      Z        X      Y      Z        X      Y      Z
   1   6    -0.11   0.09   0.14     0.11  -0.10  -0.17    -0.13   0.10   0.03
   2   6     0.08   0.03   0.10     0.11  -0.11   0.08     0.12   0.10   0.22
   3   6     0.07  -0.06   0.08    -0.12  -0.05   0.13    -0.05   0.04   0.07
   4   6    -0.10  -0.01   0.05    -0.06  -0.07  -0.09    -0.09  -0.04   0.02
   5   6    -0.18   0.02  -0.06    -0.03  -0.01   0.01     0.20  -0.07   0.09
   6   8    -0.01   0.10  -0.13     0.03   0.05   0.03    -0.05  -0.07   0.01
   7   8    -0.02  -0.05   0.03     0.01   0.00   0.00     0.01   0.05  -0.05
   8   8     0.02   0.03  -0.05     0.02   0.05  -0.03     0.01   0.01  -0.05
   9   8    -0.02   0.10  -0.00     0.01   0.10   0.00     0.00   0.09  -0.01
  10   8    -0.07  -0.02  -0.04     0.09   0.08  -0.01    -0.12  -0.05  -0.06
  11   1     0.22  -0.19  -0.21    -0.13   0.08   0.10     0.09  -0.16  -0.15
  12   1     0.11  -0.11  -0.14    -0.23   0.22   0.25     0.16  -0.15  -0.17
  13   1    -0.03  -0.01  -0.07    -0.55   0.14  -0.20     0.02  -0.05  -0.15
  14   1    -0.02  -0.10  -0.22     0.19  -0.25  -0.25     0.16  -0.24  -0.33
  15   1     0.13  -0.08   0.05     0.18  -0.02   0.25    -0.01  -0.00   0.05
  16   1     0.61  -0.17   0.30     0.03  -0.01   0.02    -0.51   0.20  -0.07
  17   1    -0.03  -0.02   0.01    -0.01  -0.00   0.00     0.10   0.00  -0.02
  18   1     0.03  -0.04   0.10     0.01  -0.01   0.02     0.03  -0.03   0.09
  19   1     0.03  -0.14  -0.10     0.02  -0.07  -0.05     0.02  -0.08  -0.06
  20   1     0.18  -0.00  -0.01    -0.12   0.01   0.01     0.31  -0.00  -0.03
                     40                     41                     42
                        a                      a                      a 
 Frequencies --  1341.6979              1351.1993              1354.9469
 Red. masses --     5.4062                 5.5925                 4.3567
 Frc consts  --     0.0000                 0.0000                 0.0000
 IR Inten    --    13.9350                14.5009                23.6156
 Raman Activ --     0.0000                 0.0000                 0.0000
 Depolar     --     0.0000                 0.0000                 0.0000
 Atom AN      X      Y      Z        X      Y      Z        X      Y      Z
   1   6    -0.08   0.07   0.17     0.14  -0.10  -0.16    -0.04   0.02  -0.02
   2   6     0.03  -0.16  -0.34    -0.27   0.13   0.11     0.18   0.06   0.22
   3   6     0.16  -0.09   0.06     0.35  -0.15   0.11    -0.04  -0.15  -0.27
   4   6    -0.28   0.14   0.09    -0.24   0.13   0.02    -0.17   0.14  -0.05
   5   6     0.11  -0.08  -0.10     0.05  -0.02  -0.03     0.01   0.04   0.19
   6   8    -0.01  -0.03   0.03     0.02   0.01   0.05    -0.01  -0.01  -0.02
   7   8     0.02   0.02  -0.00    -0.00  -0.00  -0.01    -0.03  -0.02  -0.04
   8   8     0.04   0.02  -0.09     0.03   0.01  -0.05     0.05   0.01  -0.06
   9   8    -0.01   0.02   0.01    -0.06   0.09  -0.01    -0.00  -0.07   0.03
  10   8     0.09   0.08   0.05    -0.03  -0.05  -0.03    -0.06  -0.01  -0.04
  11   1     0.05   0.01   0.00    -0.16   0.08   0.12     0.05  -0.06  -0.07
  12   1     0.14  -0.14  -0.16    -0.18   0.16   0.16     0.04  -0.03  -0.02
  13   1    -0.20   0.20   0.32     0.33  -0.19  -0.11    -0.22   0.03  -0.23
  14   1    -0.14   0.05  -0.02    -0.31   0.08  -0.14    -0.05   0.25   0.50
  15   1     0.31  -0.17   0.02     0.25  -0.12   0.05     0.31  -0.09   0.15
  16   1    -0.20   0.13   0.10    -0.05   0.02  -0.02     0.01  -0.11  -0.26
  17   1    -0.03   0.01   0.00     0.00  -0.00  -0.00     0.13  -0.02  -0.02
  18   1     0.07  -0.07   0.20     0.05  -0.04   0.12     0.06  -0.04   0.14
  19   1     0.01  -0.05  -0.03     0.04  -0.21  -0.15    -0.02   0.09   0.07
  20   1    -0.30   0.00   0.02     0.14  -0.01  -0.01     0.15   0.00  -0.01
                     43                     44                     45
                        a                      a                      a 
 Frequencies --  1359.2287              1457.7701              2739.5854
 Red. masses --     5.6204                 1.8851                 1.6633
 Frc consts  --     0.0000                 0.0000                 0.0000
 IR Inten    --     6.5690                 3.2002                92.3098
 Raman Activ --     0.0000                 0.0000                 0.0000
 Depolar     --     0.0000                 0.0000                 0.0000
 Atom AN      X      Y      Z        X      Y      Z        X      Y      Z
   1   6     0.02  -0.04  -0.11     0.21   0.11   0.13     0.00  -0.00   0.00
   2   6     0.07   0.06   0.17     0.04  -0.00  -0.00    -0.00  -0.00   0.00
   3   6    -0.11  -0.02  -0.16    -0.02   0.01  -0.02    -0.00  -0.01   0.00
   4   6    -0.05   0.05   0.31     0.01  -0.00   0.01    -0.00   0.00   0.00
   5   6     0.06  -0.12  -0.42    -0.01   0.01  -0.03     0.09   0.21  -0.07
   6   8     0.01   0.03   0.08     0.03   0.00   0.02    -0.01   0.01  -0.02
   7   8     0.06   0.04   0.07    -0.00  -0.00   0.01     0.02   0.00  -0.01
   8   8     0.00  -0.01  -0.06    -0.00  -0.00   0.00     0.00  -0.00   0.00
   9   8     0.03  -0.05   0.00     0.00  -0.01   0.00    -0.00  -0.00  -0.00
  10   8    -0.03  -0.01  -0.02    -0.00   0.00   0.01    -0.00  -0.00   0.00
  11   1    -0.04   0.03   0.02    -0.43  -0.52   0.04    -0.00   0.00  -0.01
  12   1    -0.03   0.06   0.09    -0.45   0.07  -0.51    -0.00   0.01  -0.00
  13   1    -0.08  -0.03  -0.18    -0.01   0.01   0.01     0.01   0.01  -0.00
  14   1     0.11   0.03   0.19     0.02   0.01   0.03     0.01   0.03  -0.01
  15   1    -0.01  -0.14  -0.31    -0.01  -0.00  -0.01     0.02   0.04  -0.01
  16   1    -0.08   0.23   0.47     0.01   0.01   0.01    -0.38  -0.83   0.32
  17   1    -0.24   0.03   0.03    -0.01   0.00   0.00     0.00   0.00  -0.01
  18   1     0.03  -0.04   0.10    -0.00   0.00  -0.00     0.00   0.00   0.00
  19   1    -0.02   0.09   0.07    -0.00   0.01   0.01     0.00   0.00  -0.00
  20   1     0.10   0.00  -0.01    -0.01   0.00   0.00     0.00   0.00  -0.00
                     46                     47                     48
                        a                      a                      a 
 Frequencies --  2850.7677              2861.4255              2875.3278
 Red. masses --     1.6660                 1.7255                 1.7532
 Frc consts  --     0.0000                 0.0000                 0.0000
 IR Inten    --    11.0166                26.5988                84.4720
 Raman Activ --     0.0000                 0.0000                 0.0000
 Depolar     --     0.0000                 0.0000                 0.0000
 Atom AN      X      Y      Z        X      Y      Z        X      Y      Z
   1   6    -0.00   0.00  -0.00    -0.02  -0.04   0.02     0.02   0.05  -0.02
   2   6     0.03   0.08  -0.03     0.08   0.19  -0.07    -0.02  -0.05   0.02
   3   6    -0.09  -0.18   0.09     0.03   0.07  -0.04    -0.03  -0.06   0.03
   4   6     0.02   0.03  -0.01    -0.04  -0.07   0.02    -0.11  -0.19   0.07
   5   6    -0.00  -0.00   0.00    -0.00  -0.00   0.00    -0.01  -0.02   0.00
   6   8    -0.00  -0.00   0.00    -0.00  -0.00   0.00     0.00   0.00  -0.00
   7   8     0.00  -0.00  -0.00     0.00   0.00   0.00     0.00   0.00   0.00
   8   8     0.00   0.00  -0.00     0.00  -0.00   0.00     0.00  -0.01   0.01
   9   8    -0.00  -0.01  -0.01     0.00   0.00   0.00     0.00  -0.00  -0.00
  10   8     0.01   0.00  -0.00     0.01   0.00  -0.00    -0.00  -0.00   0.00
  11   1     0.00  -0.00   0.00    -0.01  -0.00  -0.01     0.01   0.00   0.00
  12   1     0.01   0.01  -0.00     0.10   0.18  -0.07    -0.10  -0.19   0.07
  13   1    -0.15  -0.33   0.12    -0.32  -0.72   0.26     0.08   0.17  -0.06
  14   1     0.36   0.73  -0.33    -0.13  -0.25   0.11     0.10   0.20  -0.09
  15   1    -0.07  -0.13   0.05     0.15   0.27  -0.11     0.39   0.73  -0.29
  16   1     0.01   0.01  -0.00    -0.00  -0.00  -0.00     0.02   0.04  -0.01
  17   1    -0.00   0.00   0.00     0.00  -0.00  -0.00    -0.00  -0.00  -0.00
  18   1    -0.00  -0.00   0.00     0.00   0.00   0.00     0.00  -0.00   0.00
  19   1    -0.00  -0.00  -0.00    -0.00   0.00  -0.00    -0.00  -0.00   0.00
  20   1     0.00  -0.00   0.00     0.00  -0.00  -0.00    -0.00   0.00   0.00
                     49                     50                     51
                        a                      a                      a 
 Frequencies --  2890.2533              3005.8276              3517.1011
 Red. masses --     1.7420                 1.7336                 1.8719
 Frc consts  --     0.0000                 0.0000                 0.0000
 IR Inten    --   108.5309                11.1214                35.3796
 Raman Activ --     0.0000                 0.0000                 0.0000
 Depolar     --     0.0000                 0.0000                 0.0000
 Atom AN      X      Y      Z        X      Y      Z        X      Y      Z
   1   6    -0.10  -0.21   0.08     0.12  -0.09   0.21    -0.00   0.00   0.00
   2   6    -0.03  -0.07   0.02     0.00  -0.00   0.01    -0.00   0.00   0.00
   3   6    -0.01  -0.03   0.02    -0.00  -0.00  -0.00     0.00  -0.00  -0.00
   4   6    -0.02  -0.03   0.01    -0.00   0.00  -0.00    -0.00   0.00   0.00
   5   6    -0.00  -0.00   0.00    -0.00  -0.00  -0.00    -0.00   0.00  -0.00
   6   8    -0.01  -0.00   0.01     0.01  -0.00   0.00     0.00  -0.00   0.00
   7   8     0.00   0.00  -0.00    -0.00   0.00   0.00     0.00  -0.00  -0.00
   8   8     0.00  -0.00   0.00    -0.00   0.00  -0.00     0.00  -0.00  -0.00
   9   8     0.00  -0.00  -0.00    -0.00   0.00  -0.00     0.01  -0.00   0.01
  10   8    -0.00   0.00   0.00    -0.00  -0.00  -0.00     0.01   0.13   0.20
  11   1    -0.02  -0.02  -0.00    -0.46   0.36  -0.77    -0.00   0.00  -0.00
  12   1     0.42   0.76  -0.29     0.00  -0.03   0.04    -0.00  -0.00   0.00
  13   1     0.09   0.21  -0.08     0.00   0.01  -0.01     0.00   0.00  -0.00
  14   1     0.05   0.10  -0.05     0.00   0.00  -0.00     0.00   0.00   0.00
  15   1     0.07   0.12  -0.05    -0.00  -0.00   0.00     0.00   0.00  -0.00
  16   1     0.00   0.02  -0.01     0.00   0.01  -0.00    -0.00  -0.00   0.00
  17   1     0.00  -0.00   0.00    -0.00  -0.00  -0.00    -0.00   0.00   0.00
  18   1    -0.00  -0.00   0.00     0.00  -0.00  -0.00    -0.01   0.00   0.00
  19   1    -0.00  -0.00   0.00     0.00  -0.00   0.00    -0.03   0.01  -0.03
  20   1    -0.00  -0.00  -0.00    -0.00   0.00   0.00    -0.01  -0.51  -0.83
                     52                     53                     54
                        a                      a                      a 
 Frequencies --  3532.9378              3534.2956              3542.7116
 Red. masses --     1.8717                 1.8761                 1.8721
 Frc consts  --     0.0000                 0.0000                 0.0000
 IR Inten    --    47.9162                21.4634                36.6847
 Raman Activ --     0.0000                 0.0000                 0.0000
 Depolar     --     0.0000                 0.0000                 0.0000
 Atom AN      X      Y      Z        X      Y      Z        X      Y      Z
   1   6    -0.00  -0.00  -0.00    -0.00  -0.00   0.00     0.00  -0.00   0.00
   2   6    -0.00   0.00  -0.00     0.00   0.00   0.00    -0.00   0.00  -0.00
   3   6    -0.00  -0.00  -0.00     0.00   0.00   0.00     0.00   0.00   0.00
   4   6    -0.00   0.00   0.00    -0.00   0.00  -0.00     0.00  -0.00   0.00
   5   6     0.00  -0.00  -0.00     0.00  -0.00  -0.00    -0.00   0.00   0.00
   6   8    -0.00   0.00   0.00    -0.00   0.00   0.00    -0.00   0.00  -0.00
   7   8     0.00   0.00   0.01     0.00   0.00   0.01     0.02   0.05   0.23
   8   8    -0.12   0.05   0.06    -0.16   0.07   0.08     0.01  -0.01  -0.01
   9   8    -0.14   0.05  -0.12     0.10  -0.04   0.09    -0.00   0.00  -0.00
  10   8     0.00   0.00   0.01    -0.00  -0.00  -0.00     0.00  -0.00  -0.00
  11   1     0.00  -0.00   0.00     0.00   0.00   0.00     0.00  -0.00   0.00
  12   1     0.00   0.00  -0.00     0.00   0.00  -0.00     0.00   0.00  -0.00
  13   1    -0.00  -0.00   0.00     0.00   0.00  -0.00    -0.00  -0.00   0.00
  14   1     0.00   0.00  -0.00     0.00   0.00  -0.00    -0.00  -0.00  -0.00
  15   1    -0.00   0.00  -0.00    -0.00  -0.00   0.00    -0.00  -0.00   0.00
  16   1    -0.00  -0.00   0.00    -0.00  -0.00   0.00     0.00   0.00  -0.00
  17   1    -0.00  -0.01  -0.04    -0.00  -0.01  -0.05    -0.09  -0.20  -0.94
  18   1     0.49  -0.21  -0.22     0.66  -0.29  -0.29    -0.06   0.02   0.02
  19   1     0.55  -0.20   0.51    -0.41   0.15  -0.38     0.00  -0.00   0.00
  20   1     0.00  -0.02  -0.03    -0.00   0.01   0.02    -0.00   0.00   0.00
