      -----------------------------------------------------------      
     |                   =====================                   |     
     |                           x T B                           |     
     |                   =====================                   |     
     |                         S. Grimme                         |     
     |          Mulliken Center for Theoretical Chemistry        |     
     |                    University of Bonn                     |     
      -----------------------------------------------------------      

   * xtb version 6.7.1pre (5071a88) compiled by 'Marcel@Raven' on 2024-07-23

   xtb is free software: you can redistribute it and/or modify it under
   the terms of the GNU Lesser General Public License as published by
   the Free Software Foundation, either version 3 of the License, or
   (at your option) any later version.
   
   xtb is distributed in the hope that it will be useful,
   but WITHOUT ANY WARRANTY; without even the implied warranty of
   MERCHANTABILITY or FITNESS FOR A PARTICULAR PURPOSE.  See the
   GNU Lesser General Public License for more details.
   
   Cite this work as:
   * C. Bannwarth, E. Caldeweyher, S. Ehlert, A. Hansen, P. Pracht,
     J. Seibert, S. Spicher, S. Grimme, WIREs Comput. Mol. Sci., 2020, 11,
     e01493. DOI: 10.1002/wcms.1493
   
   for GFN2-xTB:
   * C. Bannwarth, S. Ehlert and S. Grimme., J. Chem. Theory Comput., 2019,
     15, 1652-1671. DOI: 10.1021/acs.jctc.8b01176
   for GFN1-xTB:
   * S. Grimme, C. Bannwarth, P. Shushkov, J. Chem. Theory Comput., 2017,
     13, 1989-2009. DOI: 10.1021/acs.jctc.7b00118
   for GFN0-xTB:
   * P. Pracht, E. Caldeweyher, S. Ehlert, S. Grimme, ChemRxiv, 2019, preprint.
     DOI: 10.26434/chemrxiv.8326202.v1
   for GFN-FF:
   * S. Spicher and S. Grimme, Angew. Chem. Int. Ed., 2020, 59, 15665-15673.
     DOI: 10.1002/anie.202004239
   
   for ALPB and GBSA implicit solvation:
   * S. Ehlert, M. Stahn, S. Spicher, S. Grimme, J. Chem. Theory Comput.,
     2021, 17, 4250-4261. DOI: 10.1021/acs.jctc.1c00471
   
   for ddCOSMO and CPCM-X implicit solvation:
   * M. Stahn, S. Ehlert, S. Grimme, J. Phys. Chem. A,
     2023, XX, XXXX-XXXX. DOI: 10.1021/acs.jpca.3c04382
   
   for DFT-D4:
   * E. Caldeweyher, C. Bannwarth and S. Grimme, J. Chem. Phys., 2017,
     147, 034112. DOI: 10.1063/1.4993215
   * E. Caldeweyher, S. Ehlert, A. Hansen, H. Neugebauer, S. Spicher,
     C. Bannwarth and S. Grimme, J. Chem. Phys., 2019, 150, 154122.
     DOI: 10.1063/1.5090222
   * E. Caldeweyher, J.-M. Mewes, S. Ehlert and S. Grimme, Phys. Chem. Chem. Phys.
     2020, 22, 8499-8512. DOI: 10.1039/D0CP00502A
   
   for sTDA-xTB:
   * S. Grimme and C. Bannwarth, J. Chem. Phys., 2016, 145, 054103.
     DOI: 10.1063/1.4959605
   
   in the mass-spec context:
   * V. Asgeirsson, C. Bauer and S. Grimme, Chem. Sci., 2017, 8, 4879.
     DOI: 10.1039/c7sc00601b
   * J. Koopman and S. Grimme, ACS Omega 2019, 4, 12, 15120-15133.
     DOI: 10.1021/acsomega.9b02011
   
   for metadynamics refer to:
   * S. Grimme, J. Chem. Theory Comput., 2019, 155, 2847-2862
     DOI: 10.1021/acs.jctc.9b00143
   
   for SPH calculations refer to:
   * S. Spicher and S. Grimme, J. Chem. Theory Comput., 2021, 17, 1701-1714
     DOI: 10.1021/acs.jctc.0c01306
   
   for ONIOM refer to:
   * C. Plett, A. Katbashev, S. Ehlert, S. Grimme, M. Bursch,
     Phys. Chem. Chem. Phys., 2023, 25, 17860-17868. DOI: 10.1039/D3CP02178E
   
   for DIPRO refer to:
   * J. Kohn, N. Gildemeister, S. Grimme, D. Fazzi, A. Hansen,
     J. Chem. Phys., 2023, just accepted.
   
   for PTB refer to:
   * S. Grimme, M. Mueller, A. Hansen, J. Chem. Phys., 2023, 158, 124111.
     DOI: 10.1063/5.0137838
   
   with help from (in alphabetical order)
   P. Atkinson, C. Bannwarth, F. Bohle, G. Brandenburg, E. Caldeweyher
   M. Checinski, S. Dohm, S. Ehlert, S. Ehrlich, I. Gerasimov, C. Hölzer
   A. Katbashev, J. Kohn, J. Koopman, C. Lavigne, S. Lehtola, F. März, M. Müller,
   F. Musil, H. Neugebauer, J. Pisarek, C. Plett, P. Pracht, F. Pultar,
   J. Seibert, P. Shushkov, S. Spicher, M. Stahn, M. Steiner, T. Strunk,
   J. Stückrath, T. Rose, and J. Unsleber
   
 * started run on 2026/09/17 at 00:40:19.887     
   ID    Z sym.   atoms
    1    6 C      1-5
    2    8 O      6-10
    3    1 H      11-20

           -------------------------------------------------
          |                Calculation Setup                |
           -------------------------------------------------

          program call               : C:\ORCA_6.1.1\xtb-6.7.1pre\xtb.exe optimized.xyz --gfn 2 --chrg 0 --uhf 0 --hess --json
          coordinate file            : optimized.xyz
          omp threads                :                     4


           -------------------------------------------------
          |                 G F N 2 - x T B                 |
           -------------------------------------------------

        Reference                      10.1021/acs.jctc.8b01176
      * Hamiltonian:
        H0-scaling (s, p, d)           1.850000    2.230000    2.230000
        zeta-weighting                 0.500000
      * Dispersion:
        s8                             2.700000
        a1                             0.520000
        a2                             5.000000
        s9                             5.000000
      * Repulsion:
        kExp                           1.500000    1.000000
        rExp                           1.000000
      * Coulomb:
        alpha                          2.000000
        third order                    shell-resolved
        anisotropic                    true
        a3                             3.000000
        a5                             4.000000
        cn-shift                       1.200000
        cn-exp                         4.000000
        max-rad                        5.000000


          ...................................................
          :                      SETUP                      :
          :.................................................:
          :  # basis functions                  50          :
          :  # atomic orbitals                  50          :
          :  # shells                           30          :
          :  # electrons                        60          :
          :  max. iterations                   250          :
          :  Hamiltonian                  GFN2-xTB          :
          :  restarted?                      false          :
          :  GBSA solvation                  false          :
          :  PC potential                    false          :
          :  electronic temp.          300.0000000     K    :
          :  accuracy                    1.0000000          :
          :  -> integral cutoff          0.2500000E+02      :
          :  -> integral neglect         0.1000000E-07      :
          :  -> SCF convergence          0.1000000E-05 Eh   :
          :  -> wf. convergence          0.1000000E-03 e    :
          :  Broyden damping             0.4000000          :
          :  net charge                          0          :
          :  unpaired electrons                  0          :
          ...................................................

 iter      E             dE          RMSdq      gap      omega  full diag
   1    -36.3581398 -0.363581E+02  0.468E+00   10.64       0.0  T
   2    -36.3896672 -0.315274E-01  0.258E+00   10.53       1.0  T
   3    -36.3906028 -0.935558E-03  0.748E-01   10.64       1.0  T
   4    -36.3914657 -0.862877E-03  0.141E-01   10.65       1.0  T
   5    -36.3915145 -0.488324E-04  0.632E-02   10.66       1.0  T
   6    -36.3915226 -0.806030E-05  0.174E-02   10.66       1.3  T
   7    -36.3915232 -0.685379E-06  0.658E-03   10.66       3.4  T
   8    -36.3915235 -0.276051E-06  0.191E-03   10.66      11.7  T
   9    -36.3915235 -0.447122E-08  0.741E-04   10.66      30.2  T
  10    -36.3915235 -0.342965E-08  0.257E-04   10.66      86.9  T

   *** convergence criteria satisfied after 10 iterations ***

         #    Occupation            Energy/Eh            Energy/eV
      -------------------------------------------------------------
         1        2.0000           -0.7338352             -19.9687
       ...           ...                  ...                  ...
        24        2.0000           -0.4720393             -12.8448
        25        2.0000           -0.4696243             -12.7791
        26        2.0000           -0.4510054             -12.2725
        27        2.0000           -0.4477742             -12.1846
        28        2.0000           -0.4266848             -11.6107
        29        2.0000           -0.4195696             -11.4171
        30        2.0000           -0.4124374             -11.2230 (HOMO)
        31                         -0.0205522              -0.5593 (LUMO)
        32                         -0.0050336              -0.1370
        33                          0.0278971               0.7591
        34                          0.0493766               1.3436
        35                          0.0659762               1.7953
       ...                                ...                  ...
        50                          0.2795268               7.6063
      -------------------------------------------------------------
                  HL-Gap            0.3918852 Eh           10.6637 eV
             Fermi-level           -0.2164948 Eh           -5.8911 eV

 SCC (total)                   0 d,  0 h,  0 min,  0.007 sec
 SCC setup                      ...        0 min,  0.000 sec (  0.000%)
 Dispersion                     ...        0 min,  0.000 sec (  0.000%)
 classical contributions        ...        0 min,  0.000 sec (  0.000%)
 integral evaluation            ...        0 min,  0.001 sec ( 14.288%)
 iterations                     ...        0 min,  0.004 sec ( 57.140%)
 molecular gradient             ...        0 min,  0.002 sec ( 28.572%)
 printout                       ...        0 min,  0.000 sec (  0.000%)

         :::::::::::::::::::::::::::::::::::::::::::::::::::::
         ::                     SUMMARY                     ::
         :::::::::::::::::::::::::::::::::::::::::::::::::::::
         :: total energy             -36.136475332503 Eh    ::
         :: gradient norm              0.000154906851 Eh/a0 ::
         :: HOMO-LUMO gap             10.663738784392 eV    ::
         ::.................................................::
         :: SCC energy               -36.391454261101 Eh    ::
         :: -> isotropic ES            0.110845510946 Eh    ::
         :: -> anisotropic ES         -0.006020058545 Eh    ::
         :: -> anisotropic XC         -0.008731388390 Eh    ::
         :: -> dispersion             -0.014688746728 Eh    ::
         :: repulsion energy           0.254978928598 Eh    ::
         :: add. restraining           0.000000000000 Eh    ::
         :: total charge               0.000000000000 e     ::
         :::::::::::::::::::::::::::::::::::::::::::::::::::::

           ------------------------------------------------- 
          |                Numerical Hessian                |
           ------------------------------------------------- 
step length          :   0.00500
SCC accuracy         :   0.30000
Hessian scale factor :   1.00000
frozen atoms in %    :   0.00000    0
RMS gradient         :   0.00016
estimated CPU  time      0.06 min
estimated wall time      0.02 min

writing file <hessian>.

 projected vibrational frequencies (cm⁻¹)
eigval :       -0.00    -0.00    -0.00     0.00     0.00     0.00
eigval :       91.71    96.19   178.11   218.76   229.50   253.46
eigval :      284.56   299.92   373.87   386.17   396.87   415.44
eigval :      437.85   451.72   498.06   527.53   578.30   629.45
eigval :      893.56   986.88  1007.94  1023.92  1042.43  1073.58
eigval :     1104.69  1111.09  1119.89  1146.68  1153.15  1155.34
eigval :     1202.81  1215.72  1222.12  1240.40  1266.72  1280.82
eigval :     1296.18  1303.49  1309.27  1341.70  1351.20  1354.95
eigval :     1359.23  1457.77  2739.59  2850.77  2861.43  2875.33
eigval :     2890.25  3005.83  3517.10  3532.94  3534.30  3542.71
           -------------------------------------------------
          |                Property Printout                |
           -------------------------------------------------

    * Orbital Energies and Occupations

         #    Occupation            Energy/Eh            Energy/eV
      -------------------------------------------------------------
         1        2.0000           -0.7338366             -19.9687
       ...           ...                  ...                  ...
        18        2.0000           -0.5461675             -14.8620
        19        2.0000           -0.5329088             -14.5012
        20        2.0000           -0.5297788             -14.4160
        21        2.0000           -0.5154874             -14.0271
        22        2.0000           -0.5042004             -13.7200
        23        2.0000           -0.4964297             -13.5085
        24        2.0000           -0.4720401             -12.8449
        25        2.0000           -0.4696250             -12.7791
        26        2.0000           -0.4510069             -12.2725
        27        2.0000           -0.4477753             -12.1846
        28        2.0000           -0.4266855             -11.6107
        29        2.0000           -0.4195703             -11.4171
        30        2.0000           -0.4124384             -11.2230 (HOMO)
        31                         -0.0205521              -0.5592 (LUMO)
        32                         -0.0050335              -0.1370
        33                          0.0278979               0.7591
        34                          0.0493776               1.3436
        35                          0.0659771               1.7953
        36                          0.0800999               2.1796
        37                          0.0865724               2.3558
        38                          0.1003836               2.7316
        39                          0.1172102               3.1895
        40                          0.1312147               3.5705
        41                          0.1514499               4.1212
       ...                                ...                  ...
        50                          0.2795274               7.6063
      -------------------------------------------------------------
                  HL-Gap            0.3918863 Eh           10.6638 eV
             Fermi-level           -0.2164952 Eh           -5.8911 eV

     #   Z          covCN         q      C6AA      α(0)
     1   6 C        3.710     0.064    19.632     6.332
     2   6 C        3.727     0.098    19.056     6.232
     3   6 C        3.731     0.098    19.057     6.231
     4   6 C        3.727     0.087    19.228     6.260
     5   6 C        3.634     0.237    17.257     5.979
     6   8 O        1.701    -0.334    19.596     5.977
     7   8 O        1.658    -0.438    21.596     6.273
     8   8 O        1.656    -0.444    21.718     6.291
     9   8 O        1.656    -0.445    21.743     6.295
    10   8 O        1.657    -0.438    21.594     6.273
    11   1 H        0.925     0.080     1.982     2.202
    12   1 H        0.923     0.044     2.402     2.424
    13   1 H        0.923     0.039     2.468     2.457
    14   1 H        0.923     0.033     2.547     2.496
    15   1 H        0.923     0.040     2.447     2.446
    16   1 H        0.921     0.008     2.922     2.673
    17   1 H        0.805     0.324     0.652     1.268
    18   1 H        0.805     0.313     0.683     1.298
    19   1 H        0.805     0.315     0.678     1.294
    20   1 H        0.805     0.318     0.668     1.284

 Mol. C6AA /au·bohr⁶  :       3279.441871
 Mol. C8AA /au·bohr⁸  :      69537.140708
 Mol. α(0) /au        :         81.984700


Wiberg/Mayer (AO) data.
largest (>0.10) Wiberg bond orders for each atom

 ---------------------------------------------------------------------------
     #   Z sym  total        # sym  WBO       # sym  WBO       # sym  WBO
 ---------------------------------------------------------------------------
     1   6 C    3.942 --     2 C    0.980     6 O    0.977    11 H    0.967
                            12 H    0.965
     2   6 C    3.965 --    10 O    1.006     1 C    0.980     3 C    0.969
                            13 H    0.957
     3   6 C    3.962 --     9 O    0.998     4 C    0.972     2 C    0.969
                            14 H    0.956
     4   6 C    3.960 --     8 O    0.999     3 C    0.972    15 H    0.956
                             5 C    0.953
     5   6 C    3.931 --     7 O    1.008     6 O    0.972     4 C    0.953
                            16 H    0.942
     6   8 O    2.078 --     1 C    0.977     5 C    0.972
     7   8 O    1.969 --     5 C    1.008    17 H    0.874
     8   8 O    1.959 --     4 C    0.999    18 H    0.884
     9   8 O    1.957 --     3 C    0.998    19 H    0.883
    10   8 O    1.958 --     2 C    1.006    20 H    0.881
    11   1 H    0.993 --     1 C    0.967
    12   1 H    0.998 --     1 C    0.965
    13   1 H    0.999 --     2 C    0.957
    14   1 H    0.999 --     3 C    0.956
    15   1 H    0.998 --     4 C    0.956
    16   1 H    1.000 --     5 C    0.942
    17   1 H    0.894 --     7 O    0.874
    18   1 H    0.901 --     8 O    0.884
    19   1 H    0.901 --     9 O    0.883
    20   1 H    0.899 --    10 O    0.881
 ---------------------------------------------------------------------------

Topologies differ in total number of bonds
Writing topology from bond orders to xtbtopo.mol

molecular dipole:
                 x           y           z       tot (Debye)
 q only:        0.279      -0.215      -0.097
   full:        0.509      -0.400      -0.139       1.682
molecular quadrupole (traceless):
                xx          xy          yy          xz          yz          zz
 q only:       -1.405      -0.556      -0.192      -0.940       2.141       1.598
  q+dip:       -5.111       2.067       3.210      -1.699       1.557       1.901
   full:       -4.021       0.865       1.711      -1.576       2.322       2.310

           -------------------------------------------------
          |               Frequency Printout                |
           -------------------------------------------------
 projected vibrational frequencies (cm⁻¹)
eigval :       -0.00    -0.00    -0.00     0.00     0.00     0.00
eigval :       91.71    96.19   178.11   218.76   229.50   253.46
eigval :      284.56   299.92   373.87   386.17   396.87   415.44
eigval :      437.85   451.72   498.06   527.53   578.30   629.45
eigval :      893.56   986.88  1007.94  1023.92  1042.43  1073.58
eigval :     1104.69  1111.09  1119.89  1146.68  1153.15  1155.34
eigval :     1202.81  1215.72  1222.12  1240.40  1266.72  1280.82
eigval :     1296.18  1303.49  1309.27  1341.70  1351.20  1354.95
eigval :     1359.23  1457.77  2739.59  2850.77  2861.43  2875.33
eigval :     2890.25  3005.83  3517.10  3532.94  3534.30  3542.71
 reduced masses (amu)
   1: 13.68   2: 13.52   3: 13.13   4: 13.81   5: 13.67   6: 13.44   7: 13.31   8: 14.44
   9:  3.50  10: 13.08  11: 12.44  12: 11.28  13: 11.93  14: 10.86  15:  3.30  16: 10.76
  17:  8.27  18:  8.17  19:  5.24  20:  9.15  21: 11.39  22: 12.82  23: 10.81  24: 12.82
  25:  6.90  26:  9.61  27:  9.20  28:  8.74  29:  9.05  30:  8.34  31: 12.51  32: 10.19
  33: 11.35  34: 12.10  35: 11.24  36:  4.90  37:  3.59  38:  2.54  39:  3.65  40:  3.53
  41:  3.97  42:  3.97  43:  3.08  44:  2.94  45:  3.53  46:  5.41  47:  5.59  48:  4.36
  49:  5.62  50:  1.89  51:  1.66  52:  1.67  53:  1.73  54:  1.75  55:  1.74  56:  1.73
  57:  1.87  58:  1.87  59:  1.88  60:  1.87
 IR intensities (km·mol⁻¹)
   1:  0.14   2:  0.08   3:  0.08   4:  0.13   5:  0.02   6:  0.04   7:  1.50   8:  1.28
   9:120.39  10:  0.82  11: 17.51  12:  2.60  13: 16.65  14:  4.70  15: 60.04  16: 31.74
  17: 43.69  18: 13.78  19:341.40  20: 77.53  21: 18.21  22: 10.47  23: 18.05  24: 11.46
  25:  7.49  26: 64.45  27: 46.35  28: 22.13  29: 22.06  30: 51.65  31: 70.53  32:129.73
  33: 85.95  34:123.33  35: 87.30  36: 12.36  37: 53.07  38: 55.84  39: 68.82  40:  3.39
  41: 79.31  42: 89.58  43: 11.05  44: 23.13  45: 93.36  46: 13.93  47: 14.50  48: 23.62
  49:  6.57  50:  3.20  51: 92.31  52: 11.02  53: 26.60  54: 84.47  55:108.53  56: 11.12
  57: 35.38  58: 47.92  59: 21.46  60: 36.68
 Raman intensities (Ä⁴*amu⁻¹)
   1:  0.00   2:  0.00   3:  0.00   4:  0.00   5:  0.00   6:  0.00   7:  0.00   8:  0.00
   9:  0.00  10:  0.00  11:  0.00  12:  0.00  13:  0.00  14:  0.00  15:  0.00  16:  0.00
  17:  0.00  18:  0.00  19:  0.00  20:  0.00  21:  0.00  22:  0.00  23:  0.00  24:  0.00
  25:  0.00  26:  0.00  27:  0.00  28:  0.00  29:  0.00  30:  0.00  31:  0.00  32:  0.00
  33:  0.00  34:  0.00  35:  0.00  36:  0.00  37:  0.00  38:  0.00  39:  0.00  40:  0.00
  41:  0.00  42:  0.00  43:  0.00  44:  0.00  45:  0.00  46:  0.00  47:  0.00  48:  0.00
  49:  0.00  50:  0.00  51:  0.00  52:  0.00  53:  0.00  54:  0.00  55:  0.00  56:  0.00
  57:  0.00  58:  0.00  59:  0.00  60:  0.00
 output can be read by thermo (or use thermo option).
 writing <g98.out> molden fake output.
 recommended (thermochemical) frequency scaling factor: 1.0
           -------------------------------------------------
          |             Thermodynamic Functions             |
           -------------------------------------------------

Molecule has no symmetry elements
It seems to be the C1 point group
c1  symmetry found (for desy threshold:  0.10E+00) used in thermo

          ...................................................
          :                      SETUP                      :
          :.................................................:
          :  # frequencies                          54      :
          :  # imaginary freq.                       0      :
          :  linear?                             false      :
          :  only rotor calc.                    false      :
          :  symmetry                               c1      :
          :  rotational number                       1      :
          :  scaling factor                  1.0000000      :
          :  rotor cutoff                   50.0000000 cm⁻¹ :
          :  imag. cutoff                  -20.0000000 cm⁻¹ :
          :.................................................:

    mode    ω/cm⁻¹     T·S(HO)/kcal·mol⁻¹    T·S(FR)/kcal·mol⁻¹   T·S(vib)
   ------------------------------------------------------------------------
       1     91.71    -1.08029 ( 91.88%)    -0.87673 (  8.12%)    -1.06376
       2     96.19    -1.05250 ( 93.20%)    -0.86261 (  6.80%)    -1.03958
       3    178.11    -0.70008 ( 99.38%)    -0.68014 (  0.62%)    -0.69996
       4    218.76    -0.58715 ( 99.73%)    -0.61926 (  0.27%)    -0.58724
       5    229.50    -0.56137 ( 99.78%)    -0.60506 (  0.22%)    -0.56147
       6    253.46    -0.50876 ( 99.85%)    -0.57565 (  0.15%)    -0.50886
       7    284.56    -0.44905 ( 99.90%)    -0.54137 (  0.10%)    -0.44914
       8    299.92    -0.42258 ( 99.92%)    -0.52580 (  0.08%)    -0.42266
   ------------------------------------------------------------------------

   temp. (K)  partition function   enthalpy   heat capacity  entropy
                                   cal/mol     cal/K/mol   cal/K/mol   J/K/mol
 298.15  VIB   270.                 4734.095     33.441     26.910
         ROT  0.657E+06              888.752      2.981     29.602
         INT  0.178E+09             5622.848     36.421     56.511
         TR   0.178E+28             1481.254      4.968     40.911
         TOT                        7104.1014    41.3896    97.4219   407.6132

       T/K    H(0)-H(T)+PV         H(T)/Eh          T*S/Eh         G(T)/Eh
   ------------------------------------------------------------------------
    298.15    0.113211E-01    0.167875E+00    0.462883E-01    0.121587E+00
   ------------------------------------------------------------------------

         :::::::::::::::::::::::::::::::::::::::::::::::::::::
         ::                  THERMODYNAMIC                  ::
         :::::::::::::::::::::::::::::::::::::::::::::::::::::
         :: total free energy         -36.014888619702 Eh   ::
         ::.................................................::
         :: total energy              -36.136475332947 Eh   ::
         :: zero point energy           0.156553886761 Eh   ::
         :: G(RRHO) w/o ZPVE           -0.034967173516 Eh   ::
         :: G(RRHO) contrib.            0.121586713245 Eh   ::
         :::::::::::::::::::::::::::::::::::::::::::::::::::::

           -------------------------------------------------
          | TOTAL ENERGY              -36.136475332947 Eh   |
          | TOTAL ENTHALPY            -35.968600339923 Eh   |
          | TOTAL FREE ENERGY         -36.014888619702 Eh   |
          | GRADIENT NORM               0.000156594967 Eh/α |
          | HOMO-LUMO GAP              10.663769923112 eV   |
           -------------------------------------------------

------------------------------------------------------------------------
 * finished run on 2026/09/17 at 00:40:20.232     
------------------------------------------------------------------------
 total:
 * wall-time:     0 d,  0 h,  0 min,  0.342 sec
 *  cpu-time:     0 d,  0 h,  0 min,  1.312 sec
 * ratio c/w:     3.838 speedup
 SCF:
 * wall-time:     0 d,  0 h,  0 min,  0.007 sec
 *  cpu-time:     0 d,  0 h,  0 min,  0.000 sec
 * ratio c/w:     0.000 speedup
 analytical hessian:
 * wall-time:     0 d,  0 h,  0 min,  0.308 sec
 *  cpu-time:     0 d,  0 h,  0 min,  1.234 sec
 * ratio c/w:     4.008 speedup

