13
Coordinates from ORCA-job optfreq E -344.491262113518
  C          -1.94879808286352      0.35691205079142     -0.32225379087522
  C          -1.71996303955280     -0.83372224252433      0.28801930185538
  O          -0.39319043847037     -0.96840204107468      0.58024004454022
  C           0.23588782745114      0.16833018231833      0.13433038953928
  C          -0.67912974311606      1.00509007342287     -0.42562716876726
  C           1.70722943254387      0.21145273505349      0.31173784499856
  O           2.41567916110409     -0.63386833326211     -0.60598505453741
  H          -2.90497839520768      0.72967990773779     -0.65906752688476
  H          -2.35314931839622     -1.65713899112778      0.58007160220969
  H          -0.46996425885822      1.96935994843234     -0.86579732092687
  H           2.05476023610017      1.22954551562667      0.11594364897969
  H           1.96682238068579     -0.04465240376823      1.35124362747121
  H           2.08879423857983     -1.53258540162579     -0.48285659760250
