13
Coordinates from ORCA-job optfreq E -344.489590399097
  C      -1.942438      0.362262     -0.310040
  C      -1.704489     -0.841560      0.272965
  O      -0.396315     -0.988127      0.542342
  C       0.227369      0.139799      0.127120
  C      -0.682029      1.001991     -0.408974
  C       1.711009      0.221976      0.296397
  O       2.406355     -0.648467     -0.569979
  H      -2.887897      0.748202     -0.630979
  H      -2.352078     -1.653228      0.538817
  H      -0.480530      1.969361     -0.820217
  H       2.049566      1.228980      0.047656
  H       1.972495      0.003235      1.343456
  H       2.078982     -1.544424     -0.428566
13
Coordinates from ORCA-job optfreq E -344.490948305160
  C      -1.950039      0.362400     -0.309425
  C      -1.715627     -0.843211      0.273815
  O      -0.395036     -0.982075      0.552300
  C       0.233549      0.150985      0.127661
  C      -0.680986      1.008211     -0.407991
  C       1.711840      0.216370      0.297122
  O       2.421406     -0.657293     -0.579526
  H      -2.904811      0.747712     -0.634924
  H      -2.362116     -1.664554      0.542709
  H      -0.475980      1.981949     -0.827730
  H       2.045352      1.228584      0.055364
  H       1.971923      0.005810      1.348549
  H       2.100526     -1.554887     -0.437925
13
Coordinates from ORCA-job optfreq E -344.491194238265
  C      -1.951355      0.361904     -0.311172
  C      -1.719265     -0.840507      0.277391
  O      -0.390905     -0.981663      0.553423
  C       0.236536      0.158917      0.126365
  C      -0.679673      1.009148     -0.414112
  C       1.708935      0.213176      0.301448
  O       2.424374     -0.654537     -0.586628
  H      -2.908714      0.744331     -0.636353
  H      -2.360336     -1.664073      0.553792
  H      -0.473148      1.981334     -0.840040
  H       2.043509      1.228648      0.072729
  H       1.968154     -0.004489      1.350817
  H       2.101888     -1.552188     -0.447660
13
Coordinates from ORCA-job optfreq E -344.491241115625
  C      -1.950662      0.360670     -0.314048
  C      -1.718968     -0.838884      0.277791
  O      -0.389831     -0.977142      0.561959
  C       0.237089      0.163942      0.126291
  C      -0.680156      1.010300     -0.415626
  C       1.707774      0.212335      0.303332
  O       2.421468     -0.652484     -0.591347
  H      -2.908278      0.739193     -0.641315
  H      -2.354944     -1.664509      0.557826
  H      -0.473522      1.980640     -0.844346
  H       2.047297      1.228083      0.081997
  H       1.968039     -0.013282      1.350037
  H       2.094693     -1.548859     -0.452551
13
Coordinates from ORCA-job optfreq E -344.491254739962
  C      -1.950034      0.359769     -0.316076
  C      -1.718600     -0.837086      0.279889
  O      -0.389448     -0.975436      0.564219
  C       0.236861      0.166785      0.127368
  C      -0.680374      1.009313     -0.419169
  C       1.707506      0.212657      0.306102
  O       2.418552     -0.648251     -0.594592
  H      -2.907715      0.736041     -0.644581
  H      -2.351495     -1.663448      0.563934
  H      -0.473465      1.977744     -0.851099
  H       2.051767      1.228448      0.092178
  H       1.967877     -0.022528      1.350427
  H       2.088568     -1.544008     -0.458602
13
Coordinates from ORCA-job optfreq E -344.491258630161
  C      -1.949596      0.358902     -0.318047
  C      -1.718207     -0.836278      0.281314
  O      -0.390021     -0.973031      0.568071
  C       0.236567      0.168111      0.128978
  C      -0.680649      1.009015     -0.420140
  C       1.707741      0.212923      0.307351
  O       2.416464     -0.645879     -0.597016
  H      -2.907060      0.733550     -0.648766
  H      -2.349748     -1.662978      0.567313
  H      -0.473591      1.976633     -0.853624
  H       2.054734      1.228480      0.097375
  H       1.967993     -0.027886      1.350408
  H       2.085371     -1.541560     -0.463218
13
Coordinates from ORCA-job optfreq E -344.491260326193
  C      -1.949415      0.358421     -0.319230
  C      -1.718181     -0.835707      0.282787
  O      -0.390726     -0.971108      0.571456
  C       0.236362      0.168845      0.130740
  C      -0.680505      1.008146     -0.421860
  C       1.707814      0.212929      0.308715
  O       2.415347     -0.643079     -0.599355
  H      -2.906700      0.732221     -0.651554
  H      -2.349251     -1.662229      0.570528
  H      -0.473053      1.974894     -0.857236
  H       2.056255      1.228667      0.102635
  H       1.967555     -0.032753      1.350788
  H       2.084498     -1.539248     -0.468414
13
Coordinates from ORCA-job optfreq E -344.491261226767
  C      -1.949150      0.357663     -0.320908
  C      -1.718610     -0.834897      0.284961
  O      -0.391543     -0.969551      0.574953
  C       0.236213      0.169116      0.132426
  C      -0.680177      1.007307     -0.423076
  C       1.707718      0.212524      0.309929
  O       2.414927     -0.639882     -0.602045
  H      -2.906055      0.730649     -0.655409
  H      -2.349937     -1.660609      0.574620
  H      -0.472214      1.973288     -0.860082
  H       2.056593      1.228862      0.107861
  H       1.967075     -0.037584      1.351043
  H       2.085158     -1.536886     -0.474274
13
Coordinates from ORCA-job optfreq E -344.491261789403
  C      -1.949015      0.357318     -0.321610
  C      -1.719178     -0.834360      0.286461
  O      -0.392320     -0.968642      0.577807
  C       0.236078      0.168959      0.133581
  C      -0.679686      1.006217     -0.424549
  C       1.707489      0.212022      0.310943
  O       2.415128     -0.636917     -0.604108
  H      -2.905605      0.730114     -0.657292
  H      -2.351184     -1.659097      0.577429
  H      -0.471158      1.971363     -0.863186
  H       2.056008      1.229134      0.112135
  H       1.966689     -0.041320      1.351280
  H       2.086754     -1.534789     -0.478891
13
Coordinates from ORCA-job optfreq E -344.491262056623
  C      -1.948860      0.357003     -0.322148
  C      -1.719751     -0.833884      0.287663
  O      -0.392938     -0.968363      0.579670
  C       0.235953      0.168562      0.134200
  C      -0.679280      1.005402     -0.425384
  C       1.707287      0.211577      0.311562
  O       2.415520     -0.634655     -0.605550
  H      -2.905148      0.729743     -0.658724
  H      -2.352571     -1.657669      0.579505
  H      -0.470299      1.969928     -0.865126
  H       2.055141      1.229398      0.115026
  H       1.966663     -0.043861      1.351301
  H       2.088283     -1.533181     -0.481997
13
Coordinates from ORCA-job optfreq E -344.491262113518
  C      -1.948798      0.356912     -0.322254
  C      -1.719963     -0.833722      0.288019
  O      -0.393190     -0.968402      0.580240
  C       0.235888      0.168330      0.134330
  C      -0.679130      1.005090     -0.425627
  C       1.707229      0.211453      0.311738
  O       2.415679     -0.633868     -0.605985
  H      -2.904978      0.729680     -0.659068
  H      -2.353149     -1.657139      0.580072
  H      -0.469964      1.969360     -0.865797
  H       2.054760      1.229546      0.115944
  H       1.966822     -0.044652      1.351244
  H       2.088794     -1.532585     -0.482857
