15
Coordinates from ORCA-job optfreq E -345.745857418015
  C      -1.968276     -0.335319      0.004459
  C      -0.617021     -0.153012      0.676117
  C       0.229544      0.985918      0.082523
  C       1.649620      0.445320      0.185030
  C       1.443872     -1.063510      0.233177
  O       2.272972     -1.909192      0.070378
  O       0.163990     -1.337941      0.507058
  H      -2.489720     -1.181260      0.443014
  H      -1.834884     -0.524064     -1.057869
  H      -2.567764      0.561149      0.136991
  H      -0.756060     -0.009781      1.757091
  H      -0.045261      1.141391     -0.961857
  H       0.082877      1.917659      0.623697
  H       2.140189      0.744632      1.113429
  H       2.295922      0.718010     -0.645951
15
Coordinates from ORCA-job optfreq E -345.746924372780
  C      -1.975525     -0.334964      0.012306
  C      -0.622236     -0.149208      0.670973
  C       0.228654      0.987368      0.075150
  C       1.653114      0.444997      0.191445
  C       1.459643     -1.066455      0.225943
  O       2.293453     -1.916109      0.067374
  O       0.164154     -1.346182      0.489535
  H      -2.503491     -1.183250      0.456137
  H      -1.850023     -0.523077     -1.058210
  H      -2.577370      0.568346      0.148313
  H      -0.752046     -0.008560      1.754798
  H      -0.042350      1.136697     -0.975805
  H       0.071754      1.928185      0.608232
  H       2.136358      0.739423      1.130529
  H       2.315911      0.722787     -0.629436
15
Coordinates from ORCA-job optfreq E -345.747231045515
  C      -1.979893     -0.333549      0.021429
  C      -0.623443     -0.146776      0.663222
  C       0.229270      0.985102      0.064599
  C       1.652817      0.446435      0.201125
  C       1.469407     -1.064529      0.222234
  O       2.302730     -1.915570      0.062000
  O       0.161757     -1.353958      0.465398
  H      -2.510987     -1.179504      0.469084
  H      -1.868113     -0.518885     -1.052715
  H      -2.580449      0.572297      0.163329
  H      -0.736588     -0.013020      1.749642
  H      -0.032786      1.123061     -0.991411
  H       0.061269      1.933193      0.583641
  H       2.121690      0.735978      1.150458
  H       2.333320      0.729724     -0.604750
15
Coordinates from ORCA-job optfreq E -345.747317386621
  C      -1.983673     -0.330827      0.030273
  C      -0.621550     -0.146182      0.655139
  C       0.230182      0.980910      0.052474
  C       1.651248      0.447964      0.210379
  C       1.473508     -1.061716      0.211171
  O       2.308308     -1.911934      0.061656
  O       0.160546     -1.358743      0.442351
  H      -2.514015     -1.174547      0.481474
  H      -1.886894     -0.512782     -1.045455
  H      -2.581967      0.575349      0.179869
  H      -0.716584     -0.017720      1.743858
  H      -0.021527      1.105321     -1.007689
  H       0.052388      1.934781      0.557181
  H       2.100801      0.729412      1.171541
  H       2.349229      0.740712     -0.576936
15
Coordinates from ORCA-job optfreq E -345.747344443562
  C      -1.986729     -0.327661      0.035991
  C      -0.619466     -0.147118      0.649001
  C       0.230809      0.976627      0.044075
  C       1.650456      0.449496      0.218606
  C       1.477019     -1.059791      0.214561
  O       2.310073     -1.908353      0.054341
  O       0.160036     -1.360905      0.424409
  H      -2.515026     -1.171027      0.488418
  H      -1.900904     -0.505331     -1.040636
  H      -2.583194      0.577838      0.193301
  H      -0.700972     -0.023081      1.739387
  H      -0.012025      1.088347     -1.019321
  H       0.045378      1.935053      0.536611
  H       2.085897      0.729720      1.186319
  H       2.358647      0.746186     -0.557777
15
Coordinates from ORCA-job optfreq E -345.747363624479
  C      -1.987566     -0.326806      0.037397
  C      -0.618389     -0.147652      0.647726
  C       0.230904      0.975972      0.041689
  C       1.650542      0.449805      0.219997
  C       1.475837     -1.059813      0.210448
  O       2.310175     -1.907785      0.054534
  O       0.160289     -1.360116      0.421527
  H      -2.513898     -1.170898      0.490571
  H      -1.903899     -0.503975     -1.039312
  H      -2.583624      0.578197      0.196845
  H      -0.697412     -0.023120      1.738360
  H      -0.009497      1.083794     -1.022602
  H       0.044296      1.935405      0.531643
  H       2.080638      0.727428      1.190799
  H       2.361605      0.749563     -0.552336
15
Coordinates from ORCA-job optfreq E -345.747371028200
  C      -1.988724     -0.325817      0.039469
  C      -0.617316     -0.148064      0.645879
  C       0.231047      0.975370      0.038583
  C       1.650878      0.450299      0.222431
  C       1.475125     -1.059903      0.207797
  O       2.310295     -1.907274      0.052068
  O       0.160329     -1.359280      0.416824
  H      -2.512626     -1.171012      0.493637
  H      -1.907975     -0.502235     -1.037607
  H      -2.584329      0.578759      0.201932
  H      -0.693104     -0.023122      1.736857
  H      -0.005740      1.077291     -1.027182
  H       0.042448      1.936567      0.524283
  H       2.073832      0.725242      1.197203
  H       2.365862      0.753178     -0.544889
15
Coordinates from ORCA-job optfreq E -345.747372225872
  C      -1.989124     -0.325648      0.040316
  C      -0.617100     -0.147932      0.645268
  C       0.231157      0.975385      0.037505
  C       1.651112      0.450478      0.223440
  C       1.475064     -1.059921      0.207119
  O       2.310289     -1.907187      0.050003
  O       0.160239     -1.359020      0.415175
  H      -2.512191     -1.171211      0.494973
  H      -1.909344     -0.502022     -1.036928
  H      -2.584620      0.578887      0.203710
  H      -0.691962     -0.022655      1.736329
  H      -0.004206      1.074836     -1.028897
  H       0.041807      1.937384      0.521343
  H       2.071172      0.724249      1.199875
  H       2.367707      0.754378     -0.541946
15
Coordinates from ORCA-job optfreq E -345.747372539609
  C      -1.989319     -0.325645      0.040853
  C      -0.617026     -0.147682      0.644977
  C       0.231284      0.975423      0.036849
  C       1.651246      0.450566      0.224086
  C       1.475135     -1.059840      0.206626
  O       2.310232     -1.907078      0.048188
  O       0.160187     -1.358943      0.414416
  H      -2.511987     -1.171295      0.495897
  H      -1.910114     -0.502163     -1.036463
  H      -2.584755      0.578929      0.204613
  H      -0.691441     -0.022114      1.736056
  H      -0.003245      1.073343     -1.029930
  H       0.041501      1.937951      0.519451
  H       2.069371      0.723429      1.201658
  H       2.368932      0.755119     -0.539994
