15
Coordinates from ORCA-job optfreq E -345.747372539609
  C          -1.98931893435992     -0.32564503217368      0.04085258494881
  C          -0.61702551174815     -0.14768186661683      0.64497731687475
  C           0.23128403626588      0.97542294552598      0.03684938008888
  C           1.65124600955385      0.45056604126324      0.22408632668025
  C           1.47513483154082     -1.05984014847671      0.20662554413432
  O           2.31023185872731     -1.90707828601353      0.04818835510785
  O           0.16018693423041     -1.35894258966368      0.41441627458927
  H          -2.51198734398521     -1.17129452118346      0.49589728169170
  H          -1.91011413067452     -0.50216342213244     -1.03646286342584
  H          -2.58475501427573      0.57892883468769      0.20461311515321
  H          -0.69144059531519     -0.02211425061926      1.73605586093479
  H          -0.00324461797856      1.07334317237398     -1.02992980591218
  H           0.04150137253465      1.93795085542129      0.51945126176467
  H           2.06937053895641      0.72342929226827      1.20165816469478
  H           2.36893156652804      0.75511897533911     -0.53999379732523
