      -----------------------------------------------------------      
     |                   =====================                   |     
     |                           x T B                           |     
     |                   =====================                   |     
     |                         S. Grimme                         |     
     |          Mulliken Center for Theoretical Chemistry        |     
     |                    University of Bonn                     |     
      -----------------------------------------------------------      

   * xtb version 6.7.1pre (5071a88) compiled by 'Marcel@Raven' on 2024-07-23

   xtb is free software: you can redistribute it and/or modify it under
   the terms of the GNU Lesser General Public License as published by
   the Free Software Foundation, either version 3 of the License, or
   (at your option) any later version.
   
   xtb is distributed in the hope that it will be useful,
   but WITHOUT ANY WARRANTY; without even the implied warranty of
   MERCHANTABILITY or FITNESS FOR A PARTICULAR PURPOSE.  See the
   GNU Lesser General Public License for more details.
   
   Cite this work as:
   * C. Bannwarth, E. Caldeweyher, S. Ehlert, A. Hansen, P. Pracht,
     J. Seibert, S. Spicher, S. Grimme, WIREs Comput. Mol. Sci., 2020, 11,
     e01493. DOI: 10.1002/wcms.1493
   
   for GFN2-xTB:
   * C. Bannwarth, S. Ehlert and S. Grimme., J. Chem. Theory Comput., 2019,
     15, 1652-1671. DOI: 10.1021/acs.jctc.8b01176
   for GFN1-xTB:
   * S. Grimme, C. Bannwarth, P. Shushkov, J. Chem. Theory Comput., 2017,
     13, 1989-2009. DOI: 10.1021/acs.jctc.7b00118
   for GFN0-xTB:
   * P. Pracht, E. Caldeweyher, S. Ehlert, S. Grimme, ChemRxiv, 2019, preprint.
     DOI: 10.26434/chemrxiv.8326202.v1
   for GFN-FF:
   * S. Spicher and S. Grimme, Angew. Chem. Int. Ed., 2020, 59, 15665-15673.
     DOI: 10.1002/anie.202004239
   
   for ALPB and GBSA implicit solvation:
   * S. Ehlert, M. Stahn, S. Spicher, S. Grimme, J. Chem. Theory Comput.,
     2021, 17, 4250-4261. DOI: 10.1021/acs.jctc.1c00471
   
   for ddCOSMO and CPCM-X implicit solvation:
   * M. Stahn, S. Ehlert, S. Grimme, J. Phys. Chem. A,
     2023, XX, XXXX-XXXX. DOI: 10.1021/acs.jpca.3c04382
   
   for DFT-D4:
   * E. Caldeweyher, C. Bannwarth and S. Grimme, J. Chem. Phys., 2017,
     147, 034112. DOI: 10.1063/1.4993215
   * E. Caldeweyher, S. Ehlert, A. Hansen, H. Neugebauer, S. Spicher,
     C. Bannwarth and S. Grimme, J. Chem. Phys., 2019, 150, 154122.
     DOI: 10.1063/1.5090222
   * E. Caldeweyher, J.-M. Mewes, S. Ehlert and S. Grimme, Phys. Chem. Chem. Phys.
     2020, 22, 8499-8512. DOI: 10.1039/D0CP00502A
   
   for sTDA-xTB:
   * S. Grimme and C. Bannwarth, J. Chem. Phys., 2016, 145, 054103.
     DOI: 10.1063/1.4959605
   
   in the mass-spec context:
   * V. Asgeirsson, C. Bauer and S. Grimme, Chem. Sci., 2017, 8, 4879.
     DOI: 10.1039/c7sc00601b
   * J. Koopman and S. Grimme, ACS Omega 2019, 4, 12, 15120-15133.
     DOI: 10.1021/acsomega.9b02011
   
   for metadynamics refer to:
   * S. Grimme, J. Chem. Theory Comput., 2019, 155, 2847-2862
     DOI: 10.1021/acs.jctc.9b00143
   
   for SPH calculations refer to:
   * S. Spicher and S. Grimme, J. Chem. Theory Comput., 2021, 17, 1701-1714
     DOI: 10.1021/acs.jctc.0c01306
   
   for ONIOM refer to:
   * C. Plett, A. Katbashev, S. Ehlert, S. Grimme, M. Bursch,
     Phys. Chem. Chem. Phys., 2023, 25, 17860-17868. DOI: 10.1039/D3CP02178E
   
   for DIPRO refer to:
   * J. Kohn, N. Gildemeister, S. Grimme, D. Fazzi, A. Hansen,
     J. Chem. Phys., 2023, just accepted.
   
   for PTB refer to:
   * S. Grimme, M. Mueller, A. Hansen, J. Chem. Phys., 2023, 158, 124111.
     DOI: 10.1063/5.0137838
   
   with help from (in alphabetical order)
   P. Atkinson, C. Bannwarth, F. Bohle, G. Brandenburg, E. Caldeweyher
   M. Checinski, S. Dohm, S. Ehlert, S. Ehrlich, I. Gerasimov, C. Hölzer
   A. Katbashev, J. Kohn, J. Koopman, C. Lavigne, S. Lehtola, F. März, M. Müller,
   F. Musil, H. Neugebauer, J. Pisarek, C. Plett, P. Pracht, F. Pultar,
   J. Seibert, P. Shushkov, S. Spicher, M. Stahn, M. Steiner, T. Strunk,
   J. Stückrath, T. Rose, and J. Unsleber
   
 * started run on 2026/09/17 at 00:40:22.081     
   ID    Z sym.   atoms
    1    6 C      1-6
    2    8 O      7-12
    3    1 H      13-26

           -------------------------------------------------
          |                Calculation Setup                |
           -------------------------------------------------

          program call               : C:\ORCA_6.1.1\xtb-6.7.1pre\xtb.exe input.xyz --gfn 2 --chrg 0 --uhf 0 --opt tight --json
          coordinate file            : input.xyz
          omp threads                :                     4


           -------------------------------------------------
          |                 G F N 2 - x T B                 |
           -------------------------------------------------

        Reference                      10.1021/acs.jctc.8b01176
      * Hamiltonian:
        H0-scaling (s, p, d)           1.850000    2.230000    2.230000
        zeta-weighting                 0.500000
      * Dispersion:
        s8                             2.700000
        a1                             0.520000
        a2                             5.000000
        s9                             5.000000
      * Repulsion:
        kExp                           1.500000    1.000000
        rExp                           1.000000
      * Coulomb:
        alpha                          2.000000
        third order                    shell-resolved
        anisotropic                    true
        a3                             3.000000
        a5                             4.000000
        cn-shift                       1.200000
        cn-exp                         4.000000
        max-rad                        5.000000


          ...................................................
          :                      SETUP                      :
          :.................................................:
          :  # basis functions                  62          :
          :  # atomic orbitals                  62          :
          :  # shells                           38          :
          :  # electrons                        74          :
          :  max. iterations                   250          :
          :  Hamiltonian                  GFN2-xTB          :
          :  restarted?                      false          :
          :  GBSA solvation                  false          :
          :  PC potential                    false          :
          :  electronic temp.          300.0000000     K    :
          :  accuracy                    1.0000000          :
          :  -> integral cutoff          0.2500000E+02      :
          :  -> integral neglect         0.1000000E-07      :
          :  -> SCF convergence          0.1000000E-05 Eh   :
          :  -> wf. convergence          0.1000000E-03 e    :
          :  Broyden damping             0.4000000          :
          :  net charge                          0          :
          :  unpaired electrons                  0          :
          ...................................................

 iter      E             dE          RMSdq      gap      omega  full diag
   1    -44.6298025 -0.446298E+02  0.447E+00   10.13       0.0  T
   2    -44.6652673 -0.354647E-01  0.243E+00    9.98       1.0  T
   3    -44.6668423 -0.157499E-02  0.666E-01    9.95       1.0  T
   4    -44.6672210 -0.378789E-03  0.133E-01    9.94       1.0  T
   5    -44.6672582 -0.371691E-04  0.392E-02    9.97       1.0  T
   6    -44.6672680 -0.975899E-05  0.192E-02    9.97       1.0  T
   7    -44.6672686 -0.639397E-06  0.525E-03    9.97       3.7  T
   8    -44.6672688 -0.189231E-06  0.175E-03    9.97      11.2  T
   9    -44.6672688 -0.110493E-07  0.554E-04    9.97      35.4  T
  10    -44.6672688 -0.161486E-08  0.249E-04    9.97      78.7  T

   *** convergence criteria satisfied after 10 iterations ***

         #    Occupation            Energy/Eh            Energy/eV
      -------------------------------------------------------------
         1        2.0000           -0.7096294             -19.3100
       ...           ...                  ...                  ...
        31        2.0000           -0.4562772             -12.4159
        32        2.0000           -0.4392908             -11.9537
        33        2.0000           -0.4324709             -11.7681
        34        2.0000           -0.4281062             -11.6494
        35        2.0000           -0.4222840             -11.4909
        36        2.0000           -0.4087727             -11.1233
        37        2.0000           -0.4033489             -10.9757 (HOMO)
        38                         -0.0371029              -1.0096 (LUMO)
        39                         -0.0132972              -0.3618
        40                         -0.0054735              -0.1489
        41                          0.0255045               0.6940
        42                          0.0415123               1.1296
       ...                                ...                  ...
        62                          0.2760318               7.5112
      -------------------------------------------------------------
                  HL-Gap            0.3662460 Eh            9.9661 eV
             Fermi-level           -0.2202259 Eh           -5.9927 eV

 SCC (total)                   0 d,  0 h,  0 min,  0.030 sec
 SCC setup                      ...        0 min,  0.001 sec (  3.333%)
 Dispersion                     ...        0 min,  0.000 sec (  0.000%)
 classical contributions        ...        0 min,  0.000 sec (  0.000%)
 integral evaluation            ...        0 min,  0.001 sec (  3.333%)
 iterations                     ...        0 min,  0.026 sec ( 86.667%)
 molecular gradient             ...        0 min,  0.002 sec (  6.667%)
 printout                       ...        0 min,  0.000 sec (  0.000%)

         :::::::::::::::::::::::::::::::::::::::::::::::::::::
         ::                     SUMMARY                     ::
         :::::::::::::::::::::::::::::::::::::::::::::::::::::
         :: total energy             -44.355855623317 Eh    ::
         :: gradient norm              0.058637332149 Eh/a0 ::
         :: HOMO-LUMO gap              9.966059989816 eV    ::
         ::.................................................::
         :: SCC energy               -44.667249414166 Eh    ::
         :: -> isotropic ES            0.146481080178 Eh    ::
         :: -> anisotropic ES         -0.002520182831 Eh    ::
         :: -> anisotropic XC         -0.005738162639 Eh    ::
         :: -> dispersion             -0.018557561918 Eh    ::
         :: repulsion energy           0.311393790849 Eh    ::
         :: add. restraining           0.000000000000 Eh    ::
         :: total charge               0.000000000000 e     ::
         :::::::::::::::::::::::::::::::::::::::::::::::::::::

      ----------------------------------------------------------- 
     |                   =====================                   |
     |                        A N C O P T                        |
     |                   =====================                   |
     |               Approximate Normal Coordinate               |
     |                Rational Function Optimizer                |
      ----------------------------------------------------------- 
      ----------------------------------------------------------- 
     |                   =====================                   |
     |                        A N C O P T                        |
     |                   =====================                   |
     |               Approximate Normal Coordinate               |
     |                Rational Function Optimizer                |
      ----------------------------------------------------------- 

          ...................................................
          :                      SETUP                      :
          :.................................................:
          :   optimization level             tight          :
          :   max. optcycles                   200          :
          :   ANC micro-cycles                  20          :
          :   degrees of freedom                72          :
          :.................................................:
          :   RF solver                   davidson          :
          :   write xtbopt.log                true          :
          :   linear?                        false          :
          :   energy convergence         0.1000000E-05 Eh   :
          :   grad. convergence          0.8000000E-03 Eh/α :
          :   maxmium RF displ.          1.0000000          :
          :   Hlow (freq-cutoff)         0.1000000E-01      :
          :   Hmax (freq-cutoff)         5.0000000          :
          :   S6 in model hess.         20.0000000          :
          ...................................................

generating ANC from exact Hessian ...
Using Lindh-Hessian (1995)
 Shifting diagonal of input Hessian by   8.735370430310068E-003
 Lowest  eigenvalues of input Hessian
    0.000000    0.000000    0.000000    0.000000    0.000000    0.000000
    0.010000    0.010664    0.010773    0.012959    0.013948    0.015494
    0.015841    0.018054    0.019917    0.021307    0.023169    0.026402
 Highest eigenvalues
    1.352379    1.370048    1.375224    1.401135    1.415519    1.428515
 

........................................................................
.............................. CYCLE    1 ..............................
........................................................................

 iter      E             dE          RMSdq      gap      omega  full diag
   1    -44.6672688 -0.446673E+02  0.556E-05    9.97       0.0  T
   2    -44.6672688 -0.353069E-10  0.256E-05    9.97     764.7  T
   3    -44.6672688 -0.183320E-11  0.140E-05    9.97    1403.8  T
     SCC iter.                  ...        0 min,  0.001 sec
     gradient                   ...        0 min,  0.002 sec
 * total energy  :   -44.3558556 Eh     change       -0.4915961E-09 Eh
   gradient norm :     0.0586378 Eh/α   predicted     0.0000000E+00 (-100.00%)
   displ. norm   :     0.2703828 α      lambda       -0.7290574E-02
   maximum displ.:     0.1114870 α      in ANC's #18, #8, #30, ...

........................................................................
.............................. CYCLE    2 ..............................
........................................................................

 iter      E             dE          RMSdq      gap      omega  full diag
   1    -44.6827473 -0.446827E+02  0.179E-01   10.21       0.0  T
   2    -44.6827556 -0.831320E-05  0.106E-01   10.22       1.0  T
   3    -44.6827576 -0.192841E-05  0.800E-03   10.22       2.5  T
   4    -44.6827578 -0.284397E-06  0.294E-03   10.22       6.7  T
   5    -44.6827579 -0.213963E-07  0.153E-03   10.22      12.8  T
   6    -44.6827579 -0.431532E-08  0.392E-04   10.22      50.0  T
   7    -44.6827579 -0.975660E-09  0.151E-04   10.22     130.1  T
     SCC iter.                  ...        0 min,  0.004 sec
     gradient                   ...        0 min,  0.002 sec
 * total energy  :   -44.3609240 Eh     change       -0.5068387E-02 Eh
   gradient norm :     0.0324348 Eh/α   predicted    -0.3912119E-02 ( -22.81%)
   displ. norm   :     0.2498754 α      lambda       -0.2833637E-02
   maximum displ.:     0.1406740 α      in ANC's #8, #7, #18, ...

........................................................................
.............................. CYCLE    3 ..............................
........................................................................

 iter      E             dE          RMSdq      gap      omega  full diag
   1    -44.6918497 -0.446918E+02  0.130E-01   10.48       0.0  T
   2    -44.6918574 -0.767455E-05  0.775E-02   10.49       1.0  T
   3    -44.6918584 -0.929895E-06  0.916E-03   10.50       2.1  T
   4    -44.6918590 -0.627175E-06  0.346E-03   10.50       5.7  T
   5    -44.6918591 -0.713457E-07  0.123E-03   10.50      16.0  T
   6    -44.6918591 -0.187099E-08  0.488E-04   10.50      40.2  T
   7    -44.6918591 -0.764963E-09  0.140E-04   10.50     140.3  T
     SCC iter.                  ...        0 min,  0.005 sec
     gradient                   ...        0 min,  0.002 sec
 * total energy  :   -44.3625711 Eh     change       -0.1647076E-02 Eh
   gradient norm :     0.0082468 Eh/α   predicted    -0.1506169E-02 (  -8.56%)
   displ. norm   :     0.1155068 α      lambda       -0.3169231E-03
   maximum displ.:     0.0582284 α      in ANC's #8, #2, #7, ...

........................................................................
.............................. CYCLE    4 ..............................
........................................................................

 iter      E             dE          RMSdq      gap      omega  full diag
   1    -44.6923241 -0.446923E+02  0.430E-02   10.56       0.0  T
   2    -44.6923249 -0.822232E-06  0.259E-02   10.56       1.0  T
   3    -44.6923250 -0.106964E-06  0.324E-03   10.56       6.1  T
   4    -44.6923251 -0.922432E-07  0.126E-03   10.56      15.6  T
   5    -44.6923251 -0.779343E-08  0.478E-04   10.56      41.0  T
   6    -44.6923251 -0.275456E-09  0.197E-04   10.56      99.3  T
     SCC iter.                  ...        0 min,  0.004 sec
     gradient                   ...        0 min,  0.002 sec
 * total energy  :   -44.3627892 Eh     change       -0.2180881E-03 Eh
   gradient norm :     0.0036954 Eh/α   predicted    -0.1605802E-03 ( -26.37%)
   displ. norm   :     0.1160991 α      lambda       -0.1546011E-03
   maximum displ.:     0.0641724 α      in ANC's #2, #6, #8, ...

........................................................................
.............................. CYCLE    5 ..............................
........................................................................

 iter      E             dE          RMSdq      gap      omega  full diag
   1    -44.6918543 -0.446919E+02  0.365E-02   10.59       0.0  T
   2    -44.6918551 -0.763919E-06  0.223E-02   10.59       1.0  T
   3    -44.6918552 -0.649113E-07  0.358E-03   10.59       5.5  T
   4    -44.6918553 -0.142275E-06  0.126E-03   10.59      15.5  T
   5    -44.6918553 -0.536528E-08  0.502E-04   10.59      39.1  T
   6    -44.6918553 -0.283492E-09  0.175E-04   10.59     112.3  T
     SCC iter.                  ...        0 min,  0.004 sec
     gradient                   ...        0 min,  0.002 sec
 * total energy  :   -44.3628927 Eh     change       -0.1035253E-03 Eh
   gradient norm :     0.0039755 Eh/α   predicted    -0.7834340E-04 ( -24.32%)
   displ. norm   :     0.0994054 α      lambda       -0.7552615E-04
   maximum displ.:     0.0584231 α      in ANC's #2, #6, #14, ...

........................................................................
.............................. CYCLE    6 ..............................
........................................................................

 iter      E             dE          RMSdq      gap      omega  full diag
   1    -44.6915979 -0.446916E+02  0.299E-02   10.60       0.0  T
   2    -44.6915983 -0.467415E-06  0.184E-02   10.60       1.1  T
   3    -44.6915984 -0.410302E-07  0.271E-03   10.60       7.2  T
   4    -44.6915985 -0.873593E-07  0.969E-04   10.60      20.2  T
   5    -44.6915985 -0.339055E-08  0.389E-04   10.60      50.4  T
     SCC iter.                  ...        0 min,  0.002 sec
     gradient                   ...        0 min,  0.003 sec
 * total energy  :   -44.3629489 Eh     change       -0.5619834E-04 Eh
   gradient norm :     0.0037777 Eh/α   predicted    -0.3815951E-04 ( -32.10%)
   displ. norm   :     0.1168775 α      lambda       -0.6821877E-04
   maximum displ.:     0.0670061 α      in ANC's #2, #6, #3, ...

........................................................................
.............................. CYCLE    7 ..............................
........................................................................

 iter      E             dE          RMSdq      gap      omega  full diag
   1    -44.6916732 -0.446917E+02  0.364E-02   10.60       0.0  T
   2    -44.6916737 -0.582290E-06  0.223E-02   10.60       1.0  T
   3    -44.6916738 -0.864773E-07  0.263E-03   10.60       7.5  T
   4    -44.6916739 -0.623838E-07  0.106E-03   10.60      18.6  T
   5    -44.6916739 -0.543413E-08  0.420E-04   10.60      46.7  T
   6    -44.6916739 -0.204246E-09  0.139E-04   10.60     141.0  T
     SCC iter.                  ...        0 min,  0.003 sec
     gradient                   ...        0 min,  0.002 sec
 * total energy  :   -44.3629950 Eh     change       -0.4607377E-04 Eh
   gradient norm :     0.0023393 Eh/α   predicted    -0.3459357E-04 ( -24.92%)
   displ. norm   :     0.0716397 α      lambda       -0.2650781E-04
   maximum displ.:     0.0381660 α      in ANC's #2, #6, #3, ...

........................................................................
.............................. CYCLE    8 ..............................
........................................................................

 iter      E             dE          RMSdq      gap      omega  full diag
   1    -44.6920238 -0.446920E+02  0.234E-02   10.60       0.0  T
   2    -44.6920240 -0.178665E-06  0.142E-02   10.60       1.4  T
   3    -44.6920240 -0.385494E-07  0.130E-03   10.60      15.1  T
   4    -44.6920240 -0.891883E-08  0.554E-04   10.60      35.4  T
   5    -44.6920240 -0.106598E-08  0.227E-04   10.60      86.5  T
     SCC iter.                  ...        0 min,  0.003 sec
     gradient                   ...        0 min,  0.002 sec
 * total energy  :   -44.3630125 Eh     change       -0.1756966E-04 Eh
   gradient norm :     0.0011397 Eh/α   predicted    -0.1333787E-04 ( -24.09%)
   displ. norm   :     0.0639441 α      lambda       -0.1018024E-04
   maximum displ.:     0.0371495 α      in ANC's #3, #2, #4, ...

........................................................................
.............................. CYCLE    9 ..............................
........................................................................

 iter      E             dE          RMSdq      gap      omega  full diag
   1    -44.6923579 -0.446924E+02  0.220E-02   10.60       0.0  T
   2    -44.6923580 -0.112615E-06  0.133E-02   10.60       1.5  T
   3    -44.6923581 -0.303127E-07  0.115E-03   10.60      17.1  T
   4    -44.6923581 -0.897312E-08  0.552E-04   10.60      35.5  T
   5    -44.6923581 -0.923535E-09  0.215E-04   10.60      91.2  T
     SCC iter.                  ...        0 min,  0.003 sec
     gradient                   ...        0 min,  0.002 sec
 * total energy  :   -44.3630213 Eh     change       -0.8775234E-05 Eh
   gradient norm :     0.0010687 Eh/α   predicted    -0.5101319E-05 ( -41.87%)
   displ. norm   :     0.0323108 α      lambda       -0.4694272E-05
   maximum displ.:     0.0217554 α      in ANC's #3, #5, #6, ...

........................................................................
.............................. CYCLE   10 ..............................
........................................................................

 iter      E             dE          RMSdq      gap      omega  full diag
   1    -44.6922845 -0.446923E+02  0.124E-02   10.60       0.0  T
   2    -44.6922846 -0.223899E-07  0.752E-03   10.60       2.6  T
   3    -44.6922846 -0.978570E-08  0.493E-04   10.60      39.8  T
   4    -44.6922846 -0.916145E-09  0.273E-04   10.60      71.8  T
     SCC iter.                  ...        0 min,  0.002 sec
     gradient                   ...        0 min,  0.003 sec
 * total energy  :   -44.3630271 Eh     change       -0.5746183E-05 Eh
   gradient norm :     0.0007546 Eh/α   predicted    -0.2348564E-05 ( -59.13%)
   displ. norm   :     0.0584182 α      lambda       -0.6335705E-05
   maximum displ.:     0.0404191 α      in ANC's #3, #5, #6, ...

........................................................................
.............................. CYCLE   11 ..............................
........................................................................

 iter      E             dE          RMSdq      gap      omega  full diag
   1    -44.6920039 -0.446920E+02  0.224E-02   10.60       0.0  T
   2    -44.6920039 -0.650768E-07  0.135E-02   10.60       1.4  T
   3    -44.6920040 -0.245277E-07  0.893E-04   10.60      22.0  T
   4    -44.6920040 -0.519125E-08  0.500E-04   10.60      39.2  T
     SCC iter.                  ...        0 min,  0.001 sec
     gradient                   ...        0 min,  0.002 sec
 * total energy  :   -44.3630339 Eh     change       -0.6878704E-05 Eh
   gradient norm :     0.0006231 Eh/α   predicted    -0.3175170E-05 ( -53.84%)
   displ. norm   :     0.0481252 α      lambda       -0.3253461E-05
   maximum displ.:     0.0359665 α      in ANC's #3, #5, #4, ...

........................................................................
.............................. CYCLE   12 ..............................
........................................................................

 iter      E             dE          RMSdq      gap      omega  full diag
   1    -44.6919610 -0.446920E+02  0.176E-02   10.60       0.0  T
   2    -44.6919610 -0.449762E-07  0.107E-02   10.60       1.8  T
   3    -44.6919610 -0.119938E-07  0.819E-04   10.60      24.0  T
   4    -44.6919611 -0.690817E-08  0.418E-04   10.60      46.9  T
     SCC iter.                  ...        0 min,  0.003 sec
     gradient                   ...        0 min,  0.001 sec
 * total energy  :   -44.3630378 Eh     change       -0.3882509E-05 Eh
   gradient norm :     0.0006806 Eh/α   predicted    -0.1632180E-05 ( -57.96%)
   displ. norm   :     0.0381443 α      lambda       -0.2371737E-05
   maximum displ.:     0.0307766 α      in ANC's #3, #5, #6, ...

........................................................................
.............................. CYCLE   13 ..............................
........................................................................

 iter      E             dE          RMSdq      gap      omega  full diag
   1    -44.6919968 -0.446920E+02  0.132E-02   10.60       0.0  T
   2    -44.6919968 -0.282079E-07  0.794E-03   10.60       2.5  T
   3    -44.6919968 -0.651148E-08  0.644E-04   10.60      30.4  T
   4    -44.6919968 -0.435975E-08  0.322E-04   10.60      60.8  T
     SCC iter.                  ...        0 min,  0.002 sec
     gradient                   ...        0 min,  0.002 sec
 * total energy  :   -44.3630408 Eh     change       -0.2934101E-05 Eh
   gradient norm :     0.0004895 Eh/α   predicted    -0.1188829E-05 ( -59.48%)
   displ. norm   :     0.0311152 α      lambda       -0.1896041E-05
   maximum displ.:     0.0271358 α      in ANC's #3, #5, #6, ...

........................................................................
.............................. CYCLE   14 ..............................
........................................................................

 iter      E             dE          RMSdq      gap      omega  full diag
   1    -44.6920476 -0.446920E+02  0.102E-02   10.60       0.0  T
   2    -44.6920476 -0.174210E-07  0.617E-03   10.60       3.2  T
   3    -44.6920476 -0.445417E-08  0.468E-04   10.60      41.9  T
   4    -44.6920476 -0.198767E-08  0.241E-04   10.60      81.5  T
     SCC iter.                  ...        0 min,  0.003 sec
     gradient                   ...        0 min,  0.002 sec
 * total energy  :   -44.3630430 Eh     change       -0.2248712E-05 Eh
   gradient norm :     0.0003294 Eh/α   predicted    -0.9495075E-06 ( -57.78%)
   displ. norm   :     0.0252473 α      lambda       -0.1334158E-05
   maximum displ.:     0.0230487 α      in ANC's #3, #6, #10, ...

........................................................................
.............................. CYCLE   15 ..............................
........................................................................

 iter      E             dE          RMSdq      gap      omega  full diag
   1    -44.6920914 -0.446921E+02  0.772E-03   10.60       0.0  T
   2    -44.6920914 -0.109959E-07  0.466E-03   10.60       4.2  T
   3    -44.6920914 -0.230825E-08  0.375E-04   10.60      52.3  T
   4    -44.6920914 -0.144419E-08  0.181E-04   10.60     108.2  T
     SCC iter.                  ...        0 min,  0.002 sec
     gradient                   ...        0 min,  0.002 sec
 * total energy  :   -44.3630446 Eh     change       -0.1622582E-05 Eh
   gradient norm :     0.0002519 Eh/α   predicted    -0.6685808E-06 ( -58.80%)
   displ. norm   :     0.0201345 α      lambda       -0.9035366E-06
   maximum displ.:     0.0182409 α      in ANC's #3, #4, #1, ...

........................................................................
.............................. CYCLE   16 ..............................
........................................................................

 iter      E             dE          RMSdq      gap      omega  full diag
   1    -44.6921053 -0.446921E+02  0.615E-03   10.60       0.0  T
   2    -44.6921053 -0.511086E-08  0.372E-03   10.60       5.3  T
   3    -44.6921053 -0.112244E-08  0.245E-04   10.60      80.0  T
   4    -44.6921053 -0.664457E-09  0.118E-04   10.60     166.1  T
     SCC iter.                  ...        0 min,  0.001 sec
     gradient                   ...        0 min,  0.003 sec
 * total energy  :   -44.3630458 Eh     change       -0.1172262E-05 Eh
   gradient norm :     0.0002169 Eh/α   predicted    -0.4527341E-06 ( -61.38%)
   displ. norm   :     0.0196580 α      lambda       -0.7537892E-06
   maximum displ.:     0.0169227 α      in ANC's #3, #4, #2, ...

........................................................................
.............................. CYCLE   17 ..............................
........................................................................

 iter      E             dE          RMSdq      gap      omega  full diag
   1    -44.6920963 -0.446921E+02  0.619E-03   10.60       0.0  T
   2    -44.6920963 -0.459526E-08  0.375E-03   10.60       5.2  T
   3    -44.6920963 -0.113841E-08  0.219E-04   10.60      89.5  T
   4    -44.6920963 -0.490310E-09  0.110E-04   10.60     178.1  T
     SCC iter.                  ...        0 min,  0.001 sec
     gradient                   ...        0 min,  0.002 sec
 * total energy  :   -44.3630468 Eh     change       -0.9565024E-06 Eh
   gradient norm :     0.0001658 Eh/α   predicted    -0.3779049E-06 ( -60.49%)
   displ. norm   :     0.0184475 α      lambda       -0.5585863E-06
   maximum displ.:     0.0154388 α      in ANC's #3, #4, #2, ...

   *** GEOMETRY OPTIMIZATION CONVERGED AFTER 17 ITERATIONS ***

------------------------------------------------------------------------
 total energy gain   :        -0.0071911 Eh       -4.5125 kcal/mol
 total RMSD          :         0.1829042 a0        0.0968 Å
 total power (kW/mol):        -1.1106073 (step) -139.8543 (real)
------------------------------------------------------------------------

 ANCopt (total)                0 d,  0 h,  0 min,  0.135 sec
 optimizer setup                ...        0 min,  0.001 sec (  0.741%)
 model hessian                  ...        0 min,  0.013 sec (  9.630%)
 ANC generation                 ...        0 min,  0.001 sec (  0.741%)
 coordinate transformation      ...        0 min,  0.000 sec (  0.000%)
 single point calculation       ...        0 min,  0.092 sec ( 68.148%)
 optimization log               ...        0 min,  0.026 sec ( 19.259%)
 hessian update                 ...        0 min,  0.000 sec (  0.000%)
 rational function              ...        0 min,  0.002 sec (  1.481%)

================
 final structure:
================
26
 xtb: 6.7.1pre (5071a88)
C           -3.16924125118650       -0.52106726407670        0.31063080447343
C           -1.84396858866503        0.16668229791329        0.65990714867836
C           -0.68164297057558       -0.42301033714809       -0.14563737212055
C            0.60325526120449        0.39219335230811        0.11460373743725
C            1.84367697169524       -0.38731971059067       -0.37043880328271
C            3.10672826631458        0.45951958989380       -0.20175591040993
O            4.17432128256445       -0.25824977838987       -0.79336118099704
O            1.68086293276948       -0.73816213097815       -1.73143084539673
O            0.50677973340554        1.64073093557231       -0.51457419497601
O           -1.01251801757489       -0.36753129952099       -1.51187343031637
O           -1.56475344026027        0.00623628460286        2.03057997911465
O           -4.20668107974390       -0.03720803638449        1.13470760154764
H           -3.39173018868318       -0.38556678320817       -0.75193379991947
H           -3.09220189347495       -1.58884351672733        0.52782599486286
H           -1.92132915226162        1.24148130727312        0.41986147221153
H           -0.52488195817735       -1.46030836904413        0.18339669508919
H            0.70201597831507        0.57421856667789        1.18801747789386
H            1.94636483662944       -1.30394787979202        0.23076381199125
H            2.95749291105519        1.42264281259756       -0.70504482782360
H            3.28651937078022        0.63533463951071        0.86457553329134
H            4.98464943545400        0.24934750454124       -0.69300699199580
H            2.56337500457318       -0.95358953446401       -2.06119433974911
H            0.07878559466229        1.48168933694407       -1.37104011953392
H           -0.23275438431877       -0.68557898004436       -1.99551206527253
H           -2.42013892964369       -0.04606083155855        2.48174472715056
H           -4.37298672485736        0.88636682409249        0.91335189805218
 
 Bond Distances (Angstroems)
 ---------------------------
C1-C2=1.5334         C1-O12=1.4105        C1-H13=1.0940        C1-H14=1.0924        C2-C1=1.5334         C2-C3=1.5322         
C2-O11=1.4080        C2-H15=1.1040        C3-C2=1.5322         C3-C4=1.5438         C3-O10=1.4068        C3-H16=1.0995        
C4-C3=1.5438         C4-C5=1.5432         C4-O9=1.4014         C4-H17=1.0932        C5-C4=1.5432         C5-C6=1.5300         
C5-O8=1.4149         C5-H18=1.1010        C6-C5=1.5300         C6-O7=1.4160         C6-H19=1.0969        C6-H20=1.0956        
O7-C6=1.4160         O7-H21=0.9614        O8-C5=1.4149         O8-H22=0.9664        O9-C4=1.4014         O9-H23=0.9706        
O10-C3=1.4068        O10-H24=0.9711       O11-C2=1.4080        O11-H25=0.9685       O12-C1=1.4105        O12-H26=0.9642       
H13-C1=1.0940        H14-C1=1.0924        H15-C2=1.1040        H16-C3=1.0995        H17-C4=1.0932        H18-C5=1.1010        
H19-C6=1.0969        H20-C6=1.0956        H21-O7=0.9614        H22-O8=0.9664        H23-O9=0.9706        H24-O10=0.9711       
H25-O11=0.9685       H26-O12=0.9642       
 C  H  Rav=1.0971 sigma=0.0038  Rmin=1.0924  Rmax=1.1040     8
 C  C  Rav=1.5365 sigma=0.0058  Rmin=1.5300  Rmax=1.5438     5
 O  H  Rav=0.9670 sigma=0.0034  Rmin=0.9614  Rmax=0.9711     6
 O  C  Rav=1.4096 sigma=0.0049  Rmin=1.4014  Rmax=1.4160     6
 
 selected bond angles (degree)
 --------------------
O12-C1-C2=110.41               H13-C1-C2=109.96               H13-C1-O12=112.05              H14-C1-C2=109.40               
H14-C1-O12=105.73              H14-C1-H13=109.18              C3-C2-C1=111.30                O11-C2-C1=110.00               
O11-C2-C3=108.51               H15-C2-C1=109.06               H15-C2-C3=108.27               H15-C2-O11=109.66              
C4-C3-C2=109.85                O10-C3-C2=108.48               O10-C3-C4=109.79               H16-C3-C2=108.30               
H16-C3-C4=109.21               H16-C3-O10=111.18              C5-C4-C3=110.44                O9-C4-C3=109.72                
O9-C4-C5=111.36                H17-C4-C3=109.19               H17-C4-C5=108.67               H17-C4-O9=107.38               
C6-C5-C4=110.45                O8-C5-C4=109.58                O8-C5-C6=109.77                H18-C5-C4=108.90               
H18-C5-C6=108.88               H18-C5-O8=109.24               O7-C6-C5=107.20                H19-C6-C5=108.85               
H19-C6-O7=110.85               H20-C6-C5=109.37               H20-C6-O7=111.36               H20-C6-H19=109.15              
H21-O7-C6=108.92               H22-O8-C5=106.17               H23-O9-C4=106.29               H24-O10-C3=106.37              
 
 selected dihedral angles (degree)
 ---------------------------------
C3-C2-C1-O12=175.47           C3-C2-C1-H13=299.61           C3-C2-C1-H14= 59.51           O11-C2-C1-O12= 55.16          
O11-C2-C1-H13=179.31          O11-C2-C1-H14=299.21          H15-C2-C1-O12=294.86          H15-C2-C1-H13= 59.00          
H15-C2-C1-H14=178.90          C4-C3-C2-C1=173.81            C4-C3-C2-O11=294.99           C4-C3-C2-H15= 53.95           
O10-C3-C2-C1= 53.80           O10-C3-C2-O11=174.97          O10-C3-C2-H15=293.94          H16-C3-C2-C1=293.01           
H16-C3-C2-O11= 54.19          H16-C3-C2-H15=173.15          C5-C4-C3-C2=164.87            C5-C4-C3-O10=284.08           
C5-C4-C3-H16= 46.23           O9-C4-C3-C2=288.00            O9-C4-C3-O10= 47.22           O9-C4-C3-H16=169.37           
H17-C4-C3-C2= 45.44           H17-C4-C3-O10=164.65          H17-C4-C3-H16=286.80          C6-C5-C4-C3=176.09            
C6-C5-C4-O9= 53.91            C6-C5-C4-H17=295.83           O8-C5-C4-C3= 55.04            O8-C5-C4-O9=292.86            
O8-C5-C4-H17=174.78           H18-C5-C4-C3=295.60           H18-C5-C4-O9=173.43           H18-C5-C4-H17= 55.35          
O7-C6-C5-C4=186.06            O7-C6-C5-O8=306.99            O7-C6-C5-H18= 66.53           H19-C6-C5-C4=306.02           
H19-C6-C5-O8= 66.96           H19-C6-C5-H18=186.50          H20-C6-C5-C4= 65.19           H20-C6-C5-O8=186.13           
H20-C6-C5-H18=305.67          H21-O7-C6-C5=180.57           H21-O7-C6-H19= 61.90          H21-O7-C6-H20=300.17          
H22-O8-C5-C4=161.98           H22-O8-C5-C6= 40.52           H22-O8-C5-H18=281.20          H23-O9-C4-C3=320.48           
H23-O9-C4-C5= 83.07           H23-O9-C4-H17=201.92          H24-O10-C3-C2=175.89          H24-O10-C3-C4= 55.84          
H24-O10-C3-H16=294.87         
           -------------------------------------------------
          |                Final Singlepoint                |
           -------------------------------------------------

          ...................................................
          :                      SETUP                      :
          :.................................................:
          :  # basis functions                  62          :
          :  # atomic orbitals                  62          :
          :  # shells                           38          :
          :  # electrons                        74          :
          :  max. iterations                   250          :
          :  Hamiltonian                  GFN2-xTB          :
          :  restarted?                      false          :
          :  GBSA solvation                  false          :
          :  PC potential                    false          :
          :  electronic temp.          300.0000000     K    :
          :  accuracy                    1.0000000          :
          :  -> integral cutoff          0.2500000E+02      :
          :  -> integral neglect         0.1000000E-07      :
          :  -> SCF convergence          0.1000000E-05 Eh   :
          :  -> wf. convergence          0.1000000E-03 e    :
          :  Broyden damping             0.4000000          :
          :  net charge                          0          :
          :  unpaired electrons                  0          :
          ...................................................

 iter      E             dE          RMSdq      gap      omega  full diag
   1    -44.6920963 -0.446921E+02  0.333E-05   10.60       0.0  T
   2    -44.6920963 -0.215294E-11  0.205E-05   10.60     955.7  T
   3    -44.6920963 -0.326850E-12  0.679E-06   10.60    2890.2  T

   *** convergence criteria satisfied after 3 iterations ***

         #    Occupation            Energy/Eh            Energy/eV
      -------------------------------------------------------------
         1        2.0000           -0.7077920             -19.2600
       ...           ...                  ...                  ...
        31        2.0000           -0.4519921             -12.2993
        32        2.0000           -0.4358843             -11.8610
        33        2.0000           -0.4281688             -11.6511
        34        2.0000           -0.4239462             -11.5362
        35        2.0000           -0.4209604             -11.4549
        36        2.0000           -0.4073016             -11.0832
        37        2.0000           -0.4022906             -10.9469 (HOMO)
        38                         -0.0126005              -0.3429 (LUMO)
        39                          0.0161954               0.4407
        40                          0.0228240               0.6211
        41                          0.0523527               1.4246
        42                          0.0608845               1.6568
       ...                                ...                  ...
        62                          0.2905134               7.9053
      -------------------------------------------------------------
                  HL-Gap            0.3896901 Eh           10.6040 eV
             Fermi-level           -0.2074456 Eh           -5.6449 eV

 SCC (total)                   0 d,  0 h,  0 min,  0.005 sec
 SCC setup                      ...        0 min,  0.000 sec (  0.000%)
 Dispersion                     ...        0 min,  0.000 sec (  0.000%)
 classical contributions        ...        0 min,  0.000 sec (  0.000%)
 integral evaluation            ...        0 min,  0.001 sec ( 19.998%)
 iterations                     ...        0 min,  0.001 sec ( 20.003%)
 molecular gradient             ...        0 min,  0.003 sec ( 59.999%)
 printout                       ...        0 min,  0.000 sec (  0.000%)

         :::::::::::::::::::::::::::::::::::::::::::::::::::::
         ::                     SUMMARY                     ::
         :::::::::::::::::::::::::::::::::::::::::::::::::::::
         :: total energy             -44.363046758795 Eh    ::
         :: gradient norm              0.000166042035 Eh/a0 ::
         :: HOMO-LUMO gap             10.604006301224 eV    ::
         ::.................................................::
         :: SCC energy               -44.692074058866 Eh    ::
         :: -> isotropic ES            0.141702248032 Eh    ::
         :: -> anisotropic ES         -0.003138149407 Eh    ::
         :: -> anisotropic XC         -0.007611939858 Eh    ::
         :: -> dispersion             -0.018831839450 Eh    ::
         :: repulsion energy           0.329027300071 Eh    ::
         :: add. restraining           0.000000000000 Eh    ::
         :: total charge              -0.000000000000 e     ::
         :::::::::::::::::::::::::::::::::::::::::::::::::::::

           -------------------------------------------------
          |                Property Printout                |
           -------------------------------------------------

    * Orbital Energies and Occupations

         #    Occupation            Energy/Eh            Energy/eV
      -------------------------------------------------------------
         1        2.0000           -0.7077920             -19.2600
       ...           ...                  ...                  ...
        25        2.0000           -0.5011339             -13.6365
        26        2.0000           -0.4966583             -13.5148
        27        2.0000           -0.4904226             -13.3451
        28        2.0000           -0.4810663             -13.0905
        29        2.0000           -0.4732320             -12.8773
        30        2.0000           -0.4618228             -12.5668
        31        2.0000           -0.4519921             -12.2993
        32        2.0000           -0.4358843             -11.8610
        33        2.0000           -0.4281688             -11.6511
        34        2.0000           -0.4239462             -11.5362
        35        2.0000           -0.4209604             -11.4549
        36        2.0000           -0.4073016             -11.0832
        37        2.0000           -0.4022906             -10.9469 (HOMO)
        38                         -0.0126005              -0.3429 (LUMO)
        39                          0.0161954               0.4407
        40                          0.0228240               0.6211
        41                          0.0523527               1.4246
        42                          0.0608845               1.6568
        43                          0.0728787               1.9831
        44                          0.0912460               2.4829
        45                          0.0946841               2.5765
        46                          0.1067473               2.9047
        47                          0.1178834               3.2078
        48                          0.1202881               3.2732
       ...                                ...                  ...
        62                          0.2905134               7.9053
      -------------------------------------------------------------
                  HL-Gap            0.3896901 Eh           10.6040 eV
             Fermi-level           -0.2074456 Eh           -5.6449 eV

     #   Z          covCN         q      C6AA      α(0)
     1   6 C        3.675     0.062    19.759     6.369
     2   6 C        3.726     0.099    19.039     6.230
     3   6 C        3.727     0.099    19.043     6.230
     4   6 C        3.728     0.088    19.213     6.258
     5   6 C        3.724     0.098    19.059     6.234
     6   6 C        3.675     0.069    19.642     6.351
     7   8 O        1.656    -0.448    21.798     6.303
     8   8 O        1.655    -0.455    21.952     6.325
     9   8 O        1.656    -0.442    21.687     6.287
    10   8 O        1.655    -0.463    22.110     6.348
    11   8 O        1.656    -0.457    21.979     6.329
    12   8 O        1.655    -0.441    21.666     6.283
    13   1 H        0.924     0.044     2.399     2.422
    14   1 H        0.924     0.059     2.206     2.323
    15   1 H        0.923     0.034     2.536     2.490
    16   1 H        0.923     0.027     2.623     2.533
    17   1 H        0.924     0.058     2.217     2.328
    18   1 H        0.923     0.027     2.630     2.536
    19   1 H        0.924     0.049     2.338     2.391
    20   1 H        0.924     0.027     2.625     2.534
    21   1 H        0.805     0.295     0.738     1.349
    22   1 H        0.805     0.318     0.669     1.285
    23   1 H        0.804     0.316     0.676     1.291
    24   1 H        0.804     0.330     0.639     1.255
    25   1 H        0.805     0.315     0.677     1.293
    26   1 H        0.805     0.292     0.747     1.357

 Mol. C6AA /au·bohr⁶  :       5141.292747
 Mol. C8AA /au·bohr⁸  :     107458.344676
 Mol. α(0) /au        :        102.934221


Wiberg/Mayer (AO) data.
largest (>0.10) Wiberg bond orders for each atom

 ---------------------------------------------------------------------------
     #   Z sym  total        # sym  WBO       # sym  WBO       # sym  WBO
 ---------------------------------------------------------------------------
     1   6 C    3.952 --    12 O    0.999     2 C    0.978    14 H    0.970
                            13 H    0.969
     2   6 C    3.960 --    11 O    0.998     1 C    0.978     3 C    0.973
                            15 H    0.955
     3   6 C    3.961 --    10 O    1.001     2 C    0.973     4 C    0.961
                            16 H    0.958
     4   6 C    3.964 --     9 O    1.012     5 C    0.963     3 C    0.961
                            17 H    0.959
     5   6 C    3.959 --     8 O    0.990     6 C    0.986     4 C    0.963
                            18 H    0.959
     6   6 C    3.953 --     7 O    0.991     5 C    0.986    20 H    0.972
                            19 H    0.968
     7   8 O    1.953 --     6 C    0.991    21 H    0.899
     8   8 O    1.963 --     5 C    0.990    22 H    0.872
     9   8 O    1.969 --     4 C    1.012    23 H    0.871
    10   8 O    1.959 --     3 C    1.001    24 H    0.854
    11   8 O    1.947 --     2 C    0.998    25 H    0.875
    12   8 O    1.971 --     1 C    0.999    26 H    0.901
    13   1 H    0.998 --     1 C    0.969
    14   1 H    0.996 --     1 C    0.970
    15   1 H    0.999 --     2 C    0.955
    16   1 H    0.999 --     3 C    0.958
    17   1 H    0.997 --     4 C    0.959
    18   1 H    0.999 --     5 C    0.959
    19   1 H    0.998 --     6 C    0.968
    20   1 H    0.999 --     6 C    0.972
    21   1 H    0.913 --     7 O    0.899
    22   1 H    0.899 --     8 O    0.872
    23   1 H    0.900 --     9 O    0.871
    24   1 H    0.891 --    10 O    0.854
    25   1 H    0.901 --    11 O    0.875
    26   1 H    0.915 --    12 O    0.901
 ---------------------------------------------------------------------------

Topologies differ in total number of bonds
Writing topology from bond orders to xtbtopo.mol

molecular dipole:
                 x           y           z       tot (Debye)
 q only:        0.553       0.211      -0.275
   full:        0.867       0.301      -0.353       2.500
molecular quadrupole (traceless):
                xx          xy          yy          xz          yz          zz
 q only:        6.700      -1.701      -3.833      -0.638       0.155      -2.867
  q+dip:        9.684      -2.163      -3.384       0.081      -0.726      -6.301
   full:       10.196      -2.572      -4.613      -0.420      -0.180      -5.583

           -------------------------------------------------
          |                Geometry Summary                 |
           -------------------------------------------------

      molecular mass/u    :      182.1720154
   center of mass at/Å    :       -0.0432544       0.0013243      -0.1017557
  moments of inertia/u·Å² :        0.2235772E+03   0.1245997E+04   0.1324623E+04
rotational constants/cm⁻¹ :        0.7539962E-01   0.1352943E-01   0.1272637E-01

 * 23 selected distances

     #   Z          #   Z                                           value/Å
     1   6 C        2   6 C                                       1.5334085 (max)
     2   6 C        3   6 C                                       1.5322012
     5   6 C        6   6 C                                       1.5299966
     6   6 C        7   8 O                                       1.4159608
     5   6 C        8   8 O                                       1.4148846
     4   6 C        9   8 O                                       1.4014346
     3   6 C       10   8 O                                       1.4068253
     2   6 C       11   8 O                                       1.4079945
     1   6 C       12   8 O                                       1.4104978
     1   6 C       13   1 H                                       1.0940317
     1   6 C       14   1 H                                       1.0923622
     2   6 C       15   1 H                                       1.1039926
     3   6 C       16   1 H                                       1.0994657
     4   6 C       17   1 H                                       1.0932082
     5   6 C       18   1 H                                       1.1009981
     6   6 C       19   1 H                                       1.0968945
     6   6 C       20   1 H                                       1.0955815
     7   8 O       21   1 H                                       0.9614353 (min)
     8   8 O       22   1 H                                       0.9664267
     9   8 O       23   1 H                                       0.9705706
    10   8 O       24   1 H                                       0.9711293
    11   8 O       25   1 H                                       0.9684881
    12   8 O       26   1 H                                       0.9641818

 * 4 distinct bonds (by element types)

   Z      Z             #   av. dist./Å        max./Å        min./Å
   1 H    6 C           8     1.0970668     1.1039926     1.0923622
   6 C    6 C           3     1.5318688     1.5334085     1.5299966
   1 H    8 O           6     0.9670386     0.9711293     0.9614353
   6 C    8 O           6     1.4095996     1.4159608     1.4014346


optimized geometry written to: xtbopt.xyz


           -------------------------------------------------
          | TOTAL ENERGY              -44.363046758795 Eh   |
          | GRADIENT NORM               0.000166042035 Eh/α |
          | HOMO-LUMO GAP              10.604006301224 eV   |
           -------------------------------------------------

------------------------------------------------------------------------
 * finished run on 2026/09/17 at 00:40:22.304     
------------------------------------------------------------------------
 total:
 * wall-time:     0 d,  0 h,  0 min,  0.221 sec
 *  cpu-time:     0 d,  0 h,  0 min,  0.781 sec
 * ratio c/w:     3.535 speedup
 SCF:
 * wall-time:     0 d,  0 h,  0 min,  0.030 sec
 *  cpu-time:     0 d,  0 h,  0 min,  0.062 sec
 * ratio c/w:     2.083 speedup
 ANC optimizer:
 * wall-time:     0 d,  0 h,  0 min,  0.144 sec
 *  cpu-time:     0 d,  0 h,  0 min,  0.547 sec
 * ratio c/w:     3.798 speedup

