 Entering Gaussian System
 *********************************************
 Gaussian 98:
 frequency output generated by the xtb code
 *********************************************
                         Standard orientation:
 --------------------------------------------------------------------
  Center     Atomic     Atomic              Coordinates (Angstroms)
  Number     Number      Type              X           Y           Z
 --------------------------------------------------------------------
    1          6             0       -3.169243   -0.521050    0.310643
    2          6             0       -1.843966    0.166693    0.659913
    3          6             0       -0.681646   -0.423007   -0.145634
    4          6             0        0.603258    0.392190    0.114601
    5          6             0        1.843674   -0.387330   -0.370445
    6          6             0        3.106730    0.459503   -0.201768
    7          8             0        4.174318   -0.258273   -0.793375
    8          8             0        1.680853   -0.738174   -1.731436
    9          8             0        0.506787    1.640728   -0.514579
   10          8             0       -1.012525   -0.367529   -1.511869
   11          8             0       -1.564746    0.006248    2.030586
   12          8             0       -4.206678   -0.037184    1.134722
   13          1             0       -3.391735   -0.385550   -0.751921
   14          1             0       -3.092209   -1.588827    0.527840
   15          1             0       -1.921321    1.241492    0.419866
   16          1             0       -0.524889   -1.460305    0.183401
   17          1             0        0.702023    0.574217    1.188014
   18          1             0        1.946359   -1.303958    0.230759
   19          1             0        2.957498    1.422626   -0.705058
   20          1             0        3.286526    0.635319    0.864563
   21          1             0        4.984649    0.249320   -0.693025
   22          1             0        2.563363   -0.953607   -2.061202
   23          1             0        0.078789    1.481687   -1.371043
   24          1             0       -0.232765   -0.685581   -1.995510
   25          1             0       -2.420131   -0.046044    2.481753
   26          1             0       -4.372979    0.886391    0.913366
 --------------------------------------------------------------------
     1 basis functions        1 primitive gaussians
     1 alpha electrons        1 beta electrons
 
 Harmonic frequencies (cm**-1), IR intensities (km*mol⁻¹),
 Raman scattering activities (A**4/amu), Raman depolarization ratios,
 reduced masses (AMU), force constants (mDyne/A) and normal coordinates:
                      1                      2                      3
                        a                      a                      a 
 Frequencies --    47.6356                51.1822                67.9387
 Red. masses --    13.8811                12.6040                12.9317
 Frc consts  --     0.0000                 0.0000                 0.0000
 IR Inten    --     3.7040                 2.8016                 1.0662
 Raman Activ --     0.0000                 0.0000                 0.0000
 Depolar     --     0.0000                 0.0000                 0.0000
 Atom AN      X      Y      Z        X      Y      Z        X      Y      Z
   1   6    -0.03   0.19  -0.10    -0.01  -0.06   0.12     0.06  -0.23   0.04
   2   6     0.05  -0.08   0.10     0.00  -0.02  -0.02    -0.05   0.04  -0.04
   3   6     0.04  -0.14   0.13    -0.01  -0.14   0.05     0.01   0.03   0.06
   4   6     0.03  -0.10   0.09    -0.01  -0.12  -0.03     0.05  -0.05   0.16
   5   6     0.06  -0.02   0.04    -0.02  -0.03  -0.16     0.01  -0.08   0.09
   6   6    -0.01   0.11  -0.08     0.01  -0.15   0.24     0.04  -0.10   0.00
   7   8    -0.00   0.32  -0.30     0.02   0.03   0.05    -0.10   0.06  -0.47
   8   8     0.02  -0.10   0.07     0.09   0.52  -0.34    -0.06  -0.08   0.10
   9   8    -0.07  -0.11   0.11    -0.09  -0.10   0.04     0.14   0.01   0.33
  10   8     0.05  -0.24   0.14    -0.04  -0.37   0.05     0.10   0.15   0.05
  11   8    -0.09  -0.35   0.12     0.04   0.23   0.00    -0.08   0.41  -0.00
  12   8    -0.06   0.45  -0.28    -0.02   0.19  -0.03    -0.12  -0.15  -0.27
  13   1     0.04   0.08  -0.04     0.01  -0.09   0.02     0.05  -0.17  -0.01
  14   1    -0.08   0.05  -0.03    -0.01  -0.00   0.11     0.05  -0.05   0.11
  15   1     0.07  -0.01   0.07     0.00  -0.02  -0.06    -0.06  -0.01  -0.08
  16   1     0.01  -0.03   0.05    -0.00  -0.03   0.05    -0.01   0.00   0.00
  17   1     0.02  -0.03   0.02     0.01  -0.04  -0.01     0.01  -0.05   0.05
  18   1     0.05   0.00   0.02    -0.03  -0.07  -0.13     0.01  -0.03   0.02
  19   1    -0.05   0.04  -0.00     0.02   0.01   0.17    -0.02   0.00   0.07
  20   1     0.03   0.02  -0.03    -0.02  -0.16   0.09     0.08  -0.10   0.00
  21   1    -0.02   0.11  -0.10     0.01  -0.01   0.08    -0.02   0.02  -0.15
  22   1     0.01   0.01   0.00     0.03   0.16  -0.09    -0.01   0.01   0.01
  23   1    -0.01  -0.04   0.03     0.04  -0.03  -0.02     0.03   0.03   0.08
  24   1     0.02  -0.06   0.04     0.01  -0.05   0.01     0.03   0.03   0.02
  25   1    -0.03  -0.04   0.01     0.01   0.11   0.01    -0.02   0.12  -0.00
  26   1     0.05   0.13  -0.07     0.01   0.04  -0.07    -0.06  -0.06  -0.16
                      4                      5                      6
                        a                      a                      a 
 Frequencies --    88.3915                98.6595               119.6751
 Red. masses --    10.5711                12.9220                11.7009
 Frc consts  --     0.0000                 0.0000                 0.0000
 IR Inten    --     2.0824                 2.9561                 3.3920
 Raman Activ --     0.0000                 0.0000                 0.0000
 Depolar     --     0.0000                 0.0000                 0.0000
 Atom AN      X      Y      Z        X      Y      Z        X      Y      Z
   1   6     0.08  -0.27   0.21     0.09   0.07  -0.17    -0.03   0.10  -0.11
   2   6     0.03  -0.14   0.11     0.01   0.08   0.15    -0.00   0.05  -0.11
   3   6     0.02   0.00  -0.01     0.09   0.10   0.24     0.01  -0.12   0.02
   4   6    -0.00   0.05  -0.01     0.07   0.21   0.02     0.04  -0.19   0.09
   5   6    -0.01   0.09  -0.09     0.01   0.14  -0.05     0.06  -0.01  -0.16
   6   6    -0.01   0.11  -0.21     0.14  -0.04  -0.13    -0.04   0.17  -0.35
   7   8     0.05  -0.20   0.26    -0.01  -0.36  -0.08     0.14  -0.03   0.22
   8   8    -0.11   0.02  -0.07    -0.10   0.24  -0.07    -0.07  -0.04  -0.16
   9   8    -0.09   0.09   0.07    -0.01   0.15  -0.13    -0.07  -0.02   0.50
  10   8    -0.07   0.16   0.02     0.03  -0.20   0.28     0.07  -0.15   0.01
  11   8     0.24  -0.13   0.09    -0.26  -0.05   0.21    -0.17   0.26  -0.07
  12   8    -0.12   0.24  -0.36    -0.07  -0.26  -0.23     0.08  -0.06   0.11
  13   1     0.10  -0.24   0.02     0.06   0.09  -0.05    -0.04   0.08  -0.02
  14   1    -0.00  -0.05   0.23     0.05   0.01  -0.12    -0.00   0.02  -0.09
  15   1    -0.03  -0.04   0.03     0.01   0.03   0.07     0.03   0.01  -0.07
  16   1     0.03  -0.01  -0.04     0.05   0.05   0.12    -0.02  -0.03   0.02
  17   1     0.01  -0.00  -0.00     0.05   0.10  -0.00     0.03  -0.13   0.04
  18   1     0.02   0.04  -0.01    -0.01   0.03  -0.03     0.09   0.00  -0.05
  19   1     0.03  -0.02  -0.17     0.09  -0.02  -0.06    -0.01  -0.02  -0.24
  20   1    -0.05   0.15  -0.07     0.05   0.01  -0.04    -0.07   0.20  -0.12
  21   1     0.02  -0.07   0.07     0.03  -0.14  -0.03     0.03   0.01   0.06
  22   1    -0.04  -0.05  -0.02    -0.04   0.01  -0.02    -0.03  -0.06  -0.05
  23   1    -0.06   0.03   0.03     0.01   0.00  -0.03    -0.00   0.05   0.11
  24   1    -0.03   0.05  -0.02     0.01  -0.04   0.07     0.03  -0.02   0.01
  25   1     0.08   0.09   0.07    -0.09  -0.07   0.00    -0.06   0.02  -0.05
  26   1    -0.01   0.03  -0.25    -0.04  -0.06  -0.00     0.02  -0.00   0.09
                      7                      8                      9
                        a                      a                      a 
 Frequencies --   173.8292               227.5192               243.8238
 Red. masses --    13.5961                12.8977                11.9013
 Frc consts  --     0.0000                 0.0000                 0.0000
 IR Inten    --     9.9089                 6.8447                 8.7497
 Raman Activ --     0.0000                 0.0000                 0.0000
 Depolar     --     0.0000                 0.0000                 0.0000
 Atom AN      X      Y      Z        X      Y      Z        X      Y      Z
   1   6     0.06   0.07   0.00     0.22   0.19  -0.11    -0.18  -0.08   0.11
   2   6     0.00   0.11   0.18     0.15   0.18   0.04    -0.15  -0.01  -0.04
   3   6    -0.05   0.06   0.10    -0.02   0.04  -0.04    -0.05   0.13  -0.05
   4   6     0.10  -0.15  -0.07    -0.07   0.02  -0.01     0.03   0.10  -0.06
   5   6     0.03  -0.22  -0.17    -0.15  -0.04   0.01     0.01   0.01  -0.02
   6   6    -0.10  -0.05  -0.02    -0.19  -0.03   0.09     0.02   0.03  -0.05
   7   8     0.23   0.32   0.18    -0.19   0.08   0.06     0.08   0.07  -0.00
   8   8    -0.01  -0.14  -0.22    -0.22  -0.09   0.03    -0.01  -0.03  -0.01
   9   8     0.27  -0.21  -0.20    -0.01   0.12   0.18     0.56   0.27   0.13
  10   8    -0.23   0.24   0.16    -0.11  -0.28  -0.02    -0.15  -0.33  -0.04
  11   8    -0.10   0.09   0.23     0.54   0.03  -0.03    -0.07  -0.19  -0.09
  12   8    -0.15  -0.16  -0.15     0.01  -0.19  -0.23    -0.17   0.05   0.12
  13   1     0.06   0.04  -0.01     0.11   0.12  -0.04    -0.07  -0.08   0.03
  14   1     0.04   0.02  -0.02     0.09   0.04  -0.11    -0.04  -0.01   0.09
  15   1     0.01   0.03   0.06     0.06   0.06   0.05    -0.07   0.00   0.02
  16   1    -0.04   0.00   0.00    -0.01   0.03   0.04     0.02   0.06   0.05
  17   1     0.07  -0.03  -0.03    -0.03  -0.02   0.00    -0.01   0.00  -0.01
  18   1     0.02  -0.08  -0.07    -0.06  -0.01   0.01     0.00   0.01   0.00
  19   1    -0.07  -0.02   0.00    -0.06   0.00   0.05     0.01   0.00  -0.03
  20   1    -0.09  -0.01   0.01    -0.07  -0.04   0.03    -0.00   0.02  -0.02
  21   1     0.01   0.15   0.10    -0.05   0.01   0.05     0.02   0.02   0.02
  22   1    -0.00   0.01  -0.08    -0.06  -0.04   0.00    -0.01  -0.06   0.01
  23   1    -0.01  -0.05  -0.01     0.10   0.06  -0.01     0.40   0.12  -0.10
  24   1    -0.09   0.03   0.01    -0.02  -0.07  -0.00    -0.03  -0.08   0.00
  25   1    -0.03  -0.02   0.04     0.17  -0.03   0.05    -0.01   0.02   0.00
  26   1    -0.07  -0.05  -0.03    -0.02  -0.04   0.00    -0.09  -0.01  -0.05
                     10                     11                     12
                        a                      a                      a 
 Frequencies --   263.5321               278.1542               292.0601
 Red. masses --    13.4330                 6.5340                 9.1233
 Frc consts  --     0.0000                 0.0000                 0.0000
 IR Inten    --     9.5798                67.8054                48.5469
 Raman Activ --     0.0000                 0.0000                 0.0000
 Depolar     --     0.0000                 0.0000                 0.0000
 Atom AN      X      Y      Z        X      Y      Z        X      Y      Z
   1   6     0.11  -0.13  -0.08     0.10  -0.11  -0.02     0.18  -0.13  -0.05
   2   6     0.07  -0.11  -0.08     0.04  -0.05  -0.02     0.07  -0.05   0.01
   3   6     0.10  -0.05   0.02     0.07   0.04   0.02     0.04   0.02  -0.03
   4   6     0.03  -0.01   0.13     0.01   0.12  -0.07    -0.01   0.09  -0.13
   5   6    -0.08  -0.05   0.11    -0.07  -0.01  -0.11    -0.05  -0.01  -0.09
   6   6    -0.15   0.03  -0.02    -0.04  -0.09   0.05    -0.02  -0.10   0.12
   7   8    -0.12   0.06   0.11     0.02   0.18  -0.14     0.03  -0.03   0.14
   8   8    -0.57   0.25   0.10    -0.11  -0.28  -0.05     0.11  -0.16  -0.09
   9   8     0.31  -0.16  -0.18    -0.09   0.20   0.06    -0.11   0.25   0.13
  10   8     0.13   0.05   0.03     0.01  -0.01   0.04    -0.31  -0.04   0.04
  11   8    -0.12  -0.01  -0.05    -0.19  -0.01   0.03    -0.23   0.04   0.08
  12   8     0.33   0.10   0.01     0.25   0.09   0.01     0.35   0.09  -0.05
  13   1     0.01  -0.05  -0.02     0.01  -0.06  -0.01     0.04  -0.06  -0.02
  14   1     0.01  -0.03   0.00     0.02  -0.02   0.03     0.04  -0.03   0.02
  15   1     0.01  -0.04  -0.05    -0.01  -0.02  -0.01     0.00  -0.02  -0.01
  16   1     0.04  -0.02  -0.01     0.05   0.02   0.01     0.05   0.01  -0.01
  17   1    -0.02   0.04   0.03     0.03   0.02  -0.02     0.01  -0.01  -0.03
  18   1     0.01  -0.04  -0.01    -0.06   0.01   0.00    -0.07   0.01  -0.00
  19   1    -0.07  -0.01  -0.04     0.01   0.03   0.10     0.01  -0.01   0.08
  20   1    -0.05   0.06  -0.01    -0.04  -0.13   0.03    -0.02  -0.08   0.05
  21   1    -0.06   0.07  -0.05     0.12  -0.29   0.66    -0.10   0.27  -0.45
  22   1    -0.18   0.02  -0.06    -0.02   0.02  -0.04     0.03  -0.16   0.05
  23   1     0.11  -0.09  -0.05    -0.04   0.07   0.02    -0.00   0.11   0.01
  24   1     0.03   0.01   0.00    -0.00  -0.00   0.00    -0.10   0.01  -0.04
  25   1    -0.05  -0.01  -0.05    -0.07  -0.02  -0.04    -0.09  -0.08  -0.05
  26   1     0.16   0.04   0.02     0.11   0.03  -0.00     0.19   0.05   0.02
                     13                     14                     15
                        a                      a                      a 
 Frequencies --   293.5380               317.1336               340.9766
 Red. masses --    11.7550                12.4320                 4.6145
 Frc consts  --     0.0000                 0.0000                 0.0000
 IR Inten    --    22.0516                15.1122                97.8585
 Raman Activ --     0.0000                 0.0000                 0.0000
 Depolar     --     0.0000                 0.0000                 0.0000
 Atom AN      X      Y      Z        X      Y      Z        X      Y      Z
   1   6    -0.05  -0.01   0.08     0.10  -0.03   0.01     0.13   0.08  -0.07
   2   6    -0.05   0.06   0.01     0.04  -0.01   0.07     0.10   0.10  -0.03
   3   6     0.06   0.13   0.11    -0.02  -0.03   0.00     0.01  -0.00   0.01
   4   6     0.04   0.12  -0.01    -0.02  -0.10  -0.03     0.01  -0.05   0.00
   5   6    -0.16  -0.11  -0.18    -0.04   0.00   0.00     0.01   0.00   0.02
   6   6    -0.25  -0.10   0.01    -0.25   0.23  -0.04    -0.03   0.05   0.01
   7   8    -0.16   0.03   0.13    -0.57  -0.11  -0.02    -0.11  -0.02   0.00
   8   8     0.04  -0.17  -0.25     0.45   0.02  -0.07     0.05   0.02   0.02
   9   8     0.04   0.13  -0.03     0.23  -0.08  -0.01    -0.03  -0.05   0.01
  10   8     0.62  -0.03   0.00    -0.05   0.05   0.00    -0.14   0.02   0.04
  11   8    -0.02  -0.13  -0.00    -0.09   0.06   0.13    -0.12  -0.21  -0.06
  12   8    -0.07   0.02   0.09     0.11   0.02  -0.06     0.27  -0.01   0.15
  13   1    -0.02  -0.04   0.02     0.05  -0.02  -0.00    -0.00   0.01  -0.01
  14   1     0.00   0.01   0.05     0.02  -0.01   0.01     0.09   0.03  -0.02
  15   1    -0.04   0.02   0.04     0.02  -0.01   0.01     0.06   0.03   0.01
  16   1     0.02   0.05   0.08    -0.01  -0.01  -0.02    -0.02  -0.00   0.00
  17   1     0.09   0.03  -0.01    -0.01  -0.03  -0.01    -0.00  -0.02   0.00
  18   1    -0.08  -0.03  -0.05     0.04   0.01  -0.00     0.01   0.00   0.01
  19   1    -0.08  -0.02   0.02    -0.08   0.03  -0.08    -0.01   0.01  -0.01
  20   1    -0.11  -0.04   0.02    -0.05   0.14  -0.03    -0.00   0.02   0.00
  21   1    -0.10   0.14  -0.15    -0.06  -0.17   0.09    -0.01  -0.03  -0.00
  22   1     0.04  -0.00  -0.02     0.17   0.16   0.04     0.02   0.02   0.01
  23   1    -0.18   0.05   0.08     0.14  -0.00  -0.04    -0.00  -0.02   0.00
  24   1     0.22   0.02   0.09    -0.02   0.01  -0.01    -0.06  -0.02  -0.01
  25   1    -0.00   0.05   0.01    -0.04  -0.13  -0.01    -0.07   0.56  -0.01
  26   1    -0.10  -0.03  -0.06     0.12   0.04   0.05    -0.44  -0.21  -0.41
                     16                     17                     18
                        a                      a                      a 
 Frequencies --   386.7037               394.7337               431.2787
 Red. masses --     3.8201                 4.3316                 3.7826
 Frc consts  --     0.0000                 0.0000                 0.0000
 IR Inten    --   139.3229               109.4494                99.7828
 Raman Activ --     0.0000                 0.0000                 0.0000
 Depolar     --     0.0000                 0.0000                 0.0000
 Atom AN      X      Y      Z        X      Y      Z        X      Y      Z
   1   6     0.13   0.07   0.15    -0.02  -0.02  -0.03     0.07  -0.03   0.03
   2   6     0.07   0.17   0.03    -0.03   0.02  -0.07    -0.04   0.14  -0.01
   3   6    -0.04   0.02  -0.11     0.01   0.05  -0.01    -0.07   0.11   0.02
   4   6    -0.04  -0.05  -0.01     0.04   0.02   0.01    -0.05   0.03   0.06
   5   6     0.01   0.00   0.03     0.03  -0.02   0.06    -0.04  -0.07   0.04
   6   6     0.03  -0.00  -0.00     0.01   0.01  -0.01    -0.01  -0.10  -0.09
   7   8     0.04   0.00  -0.01     0.00  -0.04   0.02     0.17  -0.04   0.04
   8   8    -0.06   0.04   0.04    -0.02  -0.01   0.10    -0.01  -0.14   0.04
   9   8    -0.09  -0.06   0.02     0.29   0.05  -0.03    -0.22   0.01   0.05
  10   8     0.08  -0.06  -0.20    -0.22  -0.17   0.05     0.06   0.07  -0.02
  11   8    -0.14   0.04   0.09     0.05  -0.01  -0.14    -0.02  -0.09  -0.05
  12   8     0.07   0.08   0.07     0.05   0.04   0.01     0.06  -0.01  -0.03
  13   1     0.03  -0.08   0.03    -0.03  -0.03  -0.01     0.01  -0.06   0.00
  14   1     0.10   0.04   0.12     0.00  -0.00   0.01     0.06   0.01   0.06
  15   1     0.05   0.05   0.04    -0.04   0.01  -0.01    -0.03   0.04   0.02
  16   1    -0.04  -0.00  -0.03     0.02   0.03   0.03    -0.05   0.03   0.02
  17   1    -0.04  -0.02  -0.00     0.00  -0.03   0.01    -0.02   0.03   0.01
  18   1     0.01  -0.00   0.00     0.02  -0.00   0.02    -0.03  -0.02   0.02
  19   1     0.01  -0.00  -0.00    -0.01  -0.01  -0.03    -0.02  -0.05  -0.07
  20   1     0.01   0.00  -0.00     0.01   0.03  -0.01    -0.01   0.03  -0.04
  21   1     0.01   0.00   0.00    -0.00   0.00  -0.03    -0.00   0.08  -0.08
  22   1    -0.03  -0.05   0.01     0.05   0.42  -0.11     0.11   0.71  -0.18
  23   1     0.07  -0.03  -0.04    -0.64   0.14   0.32     0.31  -0.09  -0.15
  24   1     0.05   0.00  -0.02    -0.05   0.01  -0.01    -0.08  -0.25   0.03
  25   1    -0.06  -0.68  -0.10     0.03  -0.17  -0.03    -0.00   0.02  -0.00
  26   1    -0.35  -0.13  -0.33    -0.05  -0.02  -0.06     0.09   0.02   0.04
                     19                     20                     21
                        a                      a                      a 
 Frequencies --   455.1277               462.0113               502.8664
 Red. masses --     8.5024                11.2718                 9.1685
 Frc consts  --     0.0000                 0.0000                 0.0000
 IR Inten    --    54.8329                69.0246                15.2513
 Raman Activ --     0.0000                 0.0000                 0.0000
 Depolar     --     0.0000                 0.0000                 0.0000
 Atom AN      X      Y      Z        X      Y      Z        X      Y      Z
   1   6    -0.17   0.05  -0.08     0.15   0.10   0.17    -0.03  -0.04  -0.12
   2   6     0.14  -0.42   0.06     0.12   0.05   0.19    -0.04  -0.16   0.08
   3   6     0.20  -0.26  -0.05    -0.08  -0.04  -0.27    -0.07  -0.02  -0.01
   4   6     0.04   0.08  -0.08    -0.09  -0.06  -0.12    -0.17   0.10   0.03
   5   6     0.01   0.09  -0.08     0.02   0.03   0.04    -0.21  -0.22   0.22
   6   6     0.01   0.04   0.07     0.05   0.02   0.01    -0.17  -0.29  -0.22
   7   8    -0.07  -0.03   0.07     0.05  -0.01  -0.00     0.25   0.05  -0.10
   8   8    -0.13  -0.18  -0.01    -0.11   0.02   0.09     0.22   0.22   0.09
   9   8     0.05   0.16  -0.00     0.09   0.04   0.00    -0.00   0.12  -0.03
  10   8     0.03   0.08  -0.01     0.11  -0.18  -0.48    -0.01  -0.06  -0.03
  11   8     0.05   0.24   0.20    -0.22  -0.01   0.38     0.07   0.10   0.14
  12   8    -0.12   0.04   0.07    -0.10  -0.09  -0.06     0.14   0.04   0.01
  13   1    -0.01   0.19  -0.01     0.08   0.01   0.03     0.02   0.09  -0.03
  14   1    -0.17  -0.02  -0.18     0.06   0.03   0.06    -0.07  -0.03  -0.12
  15   1     0.09  -0.13  -0.07     0.07   0.02   0.08    -0.03  -0.05   0.01
  16   1     0.16  -0.08  -0.10    -0.02  -0.02  -0.09     0.02  -0.01  -0.02
  17   1     0.01   0.03  -0.02    -0.08  -0.06  -0.02    -0.08   0.05   0.01
  18   1     0.01   0.04   0.00     0.01   0.01   0.02    -0.16  -0.08   0.05
  19   1     0.05   0.04   0.07     0.02   0.01   0.00    -0.17  -0.17  -0.21
  20   1    -0.02  -0.05   0.03     0.02   0.00   0.00    -0.01   0.11  -0.11
  21   1    -0.02   0.01  -0.08     0.01   0.00  -0.02    -0.00   0.09   0.11
  22   1     0.01   0.29  -0.11    -0.03   0.10  -0.04     0.08   0.01   0.12
  23   1     0.13   0.05  -0.06    -0.14   0.09   0.06     0.02   0.06  -0.02
  24   1    -0.03   0.01  -0.05     0.11   0.06  -0.05     0.12   0.27   0.00
  25   1    -0.00  -0.04   0.01    -0.10   0.30   0.04     0.03   0.01   0.04
  26   1    -0.24  -0.07  -0.15     0.12   0.05   0.15    -0.05  -0.03  -0.10
                     22                     23                     24
                        a                      a                      a 
 Frequencies --   555.7853               572.5521               675.6237
 Red. masses --     3.0428                10.0677                10.9495
 Frc consts  --     0.0000                 0.0000                 0.0000
 IR Inten    --   287.3249                32.5040                44.7139
 Raman Activ --     0.0000                 0.0000                 0.0000
 Depolar     --     0.0000                 0.0000                 0.0000
 Atom AN      X      Y      Z        X      Y      Z        X      Y      Z
   1   6     0.02  -0.00  -0.02    -0.10  -0.18  -0.24     0.13   0.12   0.09
   2   6    -0.06   0.09  -0.02    -0.30  -0.05   0.19     0.07  -0.00  -0.06
   3   6    -0.09  -0.02   0.07    -0.33   0.17   0.03    -0.17  -0.36   0.08
   4   6    -0.06  -0.08  -0.04    -0.15  -0.08   0.03    -0.42   0.01   0.11
   5   6     0.05   0.07  -0.05     0.00   0.15  -0.09    -0.34   0.34  -0.07
   6   6     0.09   0.10   0.05     0.13   0.13   0.05     0.02  -0.00  -0.06
   7   8    -0.01  -0.03   0.03     0.04  -0.03   0.00     0.20  -0.03  -0.04
   8   8    -0.08  -0.17  -0.02    -0.04  -0.08  -0.07     0.06  -0.08  -0.08
   9   8    -0.03  -0.05  -0.02     0.09  -0.11   0.00     0.26  -0.03  -0.04
  10   8    -0.07  -0.10   0.12     0.11  -0.03  -0.14     0.09   0.11   0.16
  11   8     0.02  -0.04  -0.09     0.14   0.09   0.22    -0.02  -0.03  -0.11
  12   8     0.05  -0.00  -0.01     0.33   0.08  -0.01     0.00  -0.04  -0.04
  13   1    -0.00  -0.03  -0.01     0.01   0.09  -0.06     0.04  -0.03   0.01
  14   1     0.04   0.01   0.02    -0.10  -0.08  -0.19     0.08   0.05   0.08
  15   1    -0.02   0.03   0.00    -0.21  -0.01   0.10     0.14  -0.00  -0.07
  16   1    -0.04  -0.00   0.04    -0.14   0.05   0.03    -0.04  -0.10   0.00
  17   1    -0.01  -0.00  -0.02    -0.04  -0.04   0.01    -0.15   0.00   0.03
  18   1     0.06   0.03  -0.01     0.06   0.05  -0.02    -0.10   0.11   0.01
  19   1     0.08   0.06   0.06     0.11   0.08   0.08     0.12   0.05   0.05
  20   1     0.01  -0.03   0.03     0.03  -0.05   0.03    -0.01  -0.09   0.00
  21   1     0.01  -0.02  -0.06     0.03  -0.03  -0.04     0.02   0.04   0.00
  22   1    -0.00   0.17  -0.10    -0.01  -0.02  -0.02     0.08   0.01   0.13
  23   1     0.15   0.02  -0.09    -0.02  -0.02   0.02    -0.03   0.04   0.03
  24   1     0.32   0.80   0.02     0.04  -0.17   0.09    -0.02  -0.09   0.05
  25   1     0.02   0.00   0.00     0.08  -0.01   0.14    -0.01  -0.01  -0.04
  26   1     0.02   0.00   0.01     0.01  -0.03  -0.15    -0.00  -0.00   0.03
                     25                     26                     27
                        a                      a                      a 
 Frequencies --   751.9535               870.4832               907.8964
 Red. masses --    10.7337                10.4233                 7.9305
 Frc consts  --     0.0000                 0.0000                 0.0000
 IR Inten    --    20.2229                27.4872                10.5743
 Raman Activ --     0.0000                 0.0000                 0.0000
 Depolar     --     0.0000                 0.0000                 0.0000
 Atom AN      X      Y      Z        X      Y      Z        X      Y      Z
   1   6     0.00   0.01  -0.01     0.09   0.08   0.08     0.31  -0.04   0.38
   2   6    -0.07   0.05   0.02    -0.03  -0.08   0.00     0.05  -0.21   0.10
   3   6    -0.19  -0.25   0.10    -0.18  -0.14   0.02    -0.02   0.27  -0.02
   4   6    -0.09  -0.23  -0.56    -0.14   0.17   0.33    -0.10  -0.05  -0.13
   5   6     0.16  -0.19   0.05     0.15  -0.30   0.19    -0.04  -0.01  -0.00
   6   6     0.05   0.04   0.07     0.21   0.14   0.23     0.02   0.04   0.03
   7   8    -0.04   0.00  -0.01    -0.06   0.04  -0.01     0.03  -0.01  -0.01
   8   8    -0.07   0.12   0.18    -0.03  -0.12  -0.41    -0.01   0.01   0.02
   9   8    -0.01   0.26  -0.01    -0.00   0.23  -0.10    -0.01  -0.12   0.05
  10   8     0.18   0.15   0.23    -0.03   0.00  -0.05     0.02  -0.01   0.08
  11   8     0.01  -0.01  -0.05    -0.02   0.00  -0.06    -0.11   0.02  -0.34
  12   8     0.05  -0.01  -0.01     0.03  -0.02  -0.03    -0.11   0.04  -0.01
  13   1    -0.00  -0.02  -0.01     0.06   0.03   0.02     0.25   0.41   0.12
  14   1     0.02   0.01   0.02     0.02   0.02   0.01    -0.13  -0.09  -0.27
  15   1     0.02   0.01  -0.01     0.03  -0.03  -0.04    -0.18  -0.07  -0.04
  16   1    -0.11  -0.07   0.06    -0.04  -0.05  -0.03     0.04   0.09   0.03
  17   1    -0.01  -0.05  -0.16    -0.10   0.12   0.08    -0.04  -0.05  -0.03
  18   1     0.04  -0.04   0.03     0.05  -0.15  -0.07    -0.02   0.00   0.01
  19   1    -0.05  -0.03  -0.04    -0.09  -0.06  -0.10     0.01   0.01  -0.00
  20   1     0.04   0.09  -0.00     0.15   0.25   0.01     0.02   0.02   0.00
  21   1     0.01  -0.03  -0.01     0.08  -0.12  -0.06     0.02  -0.02  -0.01
  22   1    -0.07  -0.00  -0.09    -0.04  -0.06  -0.15    -0.00   0.01   0.00
  23   1     0.01   0.29  -0.05    -0.03  -0.03   0.00     0.00   0.03  -0.00
  24   1     0.02  -0.12   0.11     0.01  -0.03   0.03     0.03  -0.02   0.07
  25   1     0.02  -0.02   0.02     0.00   0.00  -0.01    -0.06   0.01  -0.13
  26   1     0.01  -0.00  -0.01    -0.01  -0.00   0.01     0.04  -0.00  -0.09
                     28                     29                     30
                        a                      a                      a 
 Frequencies --   929.2986               980.1599              1006.7337
 Red. masses --     9.4946                 6.9262                 8.1166
 Frc consts  --     0.0000                 0.0000                 0.0000
 IR Inten    --    12.4507                17.5409                39.3229
 Raman Activ --     0.0000                 0.0000                 0.0000
 Depolar     --     0.0000                 0.0000                 0.0000
 Atom AN      X      Y      Z        X      Y      Z        X      Y      Z
   1   6    -0.12  -0.07  -0.16     0.02  -0.01   0.08     0.03   0.43   0.04
   2   6     0.17   0.05  -0.07    -0.13   0.07   0.07    -0.23  -0.41   0.03
   3   6     0.26   0.27  -0.10    -0.08  -0.24   0.13    -0.05   0.18   0.03
   4   6    -0.22  -0.07  -0.24     0.39   0.05  -0.09     0.01   0.07  -0.11
   5   6    -0.24   0.01   0.12    -0.23   0.20  -0.06    -0.01  -0.02  -0.05
   6   6     0.15   0.13   0.26     0.12  -0.05   0.23     0.01   0.01   0.02
   7   8     0.07   0.01  -0.06    -0.02   0.06  -0.04     0.00   0.00  -0.00
   8   8    -0.07  -0.07  -0.20    -0.06  -0.03   0.00     0.00   0.02   0.06
   9   8     0.01  -0.25   0.10     0.03  -0.07   0.06    -0.00  -0.15   0.08
  10   8     0.05  -0.00   0.16    -0.04   0.00  -0.18    -0.01  -0.01  -0.01
  11   8     0.04   0.00   0.15    -0.03  -0.01  -0.08    -0.03   0.05  -0.09
  12   8    -0.06   0.02   0.05     0.03  -0.00  -0.02     0.23  -0.11  -0.14
  13   1    -0.11  -0.12  -0.04     0.04   0.07   0.02     0.13  -0.19  -0.05
  14   1    -0.00  -0.00   0.05     0.00  -0.02  -0.06    -0.05   0.17   0.34
  15   1     0.03   0.02   0.04    -0.03   0.01  -0.01    -0.06  -0.11  -0.01
  16   1     0.15   0.10   0.04    -0.14  -0.09  -0.01     0.14   0.05  -0.04
  17   1    -0.15  -0.10  -0.04     0.35   0.04  -0.05     0.08   0.01  -0.03
  18   1    -0.21  -0.02   0.02    -0.37   0.06   0.04    -0.03   0.01   0.01
  19   1    -0.05  -0.07  -0.12    -0.07  -0.14  -0.17     0.00  -0.00  -0.01
  20   1     0.16   0.27   0.00     0.11   0.28  -0.01     0.00   0.02   0.00
  21   1     0.08  -0.09  -0.06     0.02  -0.03  -0.01     0.01  -0.01  -0.01
  22   1     0.02   0.02   0.03     0.03   0.04   0.09    -0.01   0.00  -0.01
  23   1     0.00   0.06   0.00     0.01  -0.06   0.02     0.01  -0.01   0.01
  24   1    -0.03  -0.00  -0.02    -0.00   0.03  -0.05     0.03  -0.01   0.06
  25   1    -0.03   0.01  -0.04     0.03  -0.01   0.06     0.06  -0.00   0.11
  26   1    -0.01   0.01   0.03     0.04  -0.01  -0.05    -0.26  -0.01   0.26
                     31                     32                     33
                        a                      a                      a 
 Frequencies --  1036.1862              1047.9047              1079.5235
 Red. masses --     8.9272                 7.7633                10.4584
 Frc consts  --     0.0000                 0.0000                 0.0000
 IR Inten    --     6.9426                 7.2392                34.1599
 Raman Activ --     0.0000                 0.0000                 0.0000
 Depolar     --     0.0000                 0.0000                 0.0000
 Atom AN      X      Y      Z        X      Y      Z        X      Y      Z
   1   6     0.01   0.03   0.05    -0.03  -0.08  -0.14     0.16  -0.09  -0.19
   2   6    -0.16   0.07   0.02     0.45  -0.19  -0.06    -0.02   0.01   0.09
   3   6     0.09  -0.07  -0.12    -0.42   0.21   0.04     0.02  -0.08   0.31
   4   6    -0.10   0.10  -0.07     0.06   0.04   0.02    -0.18   0.30  -0.17
   5   6     0.35   0.37   0.10     0.09   0.13  -0.05     0.02  -0.16   0.09
   6   6     0.08  -0.43  -0.01     0.09  -0.17  -0.01     0.15   0.01  -0.20
   7   8    -0.23   0.11   0.04    -0.11   0.07   0.03    -0.11   0.08   0.11
   8   8     0.03  -0.06  -0.12     0.02  -0.00   0.04     0.02   0.03  -0.04
   9   8     0.03  -0.13   0.06     0.01  -0.03   0.01     0.03  -0.31   0.19
  10   8     0.03   0.01   0.10    -0.06  -0.01   0.01    -0.06   0.04  -0.27
  11   8    -0.03  -0.01  -0.01     0.08   0.02   0.03    -0.00   0.00  -0.08
  12   8     0.03  -0.01  -0.02    -0.09   0.02   0.05    -0.17   0.09   0.16
  13   1     0.01   0.03   0.01    -0.03  -0.10  -0.04     0.02  -0.05  -0.04
  14   1     0.03   0.00  -0.02    -0.10  -0.01   0.06     0.15  -0.01  -0.03
  15   1    -0.07   0.02   0.02     0.17  -0.05  -0.03     0.08  -0.00  -0.02
  16   1     0.08  -0.00  -0.00    -0.20   0.03  -0.02     0.15   0.01   0.08
  17   1    -0.23  -0.03   0.01     0.12   0.02  -0.01     0.10   0.32  -0.09
  18   1    -0.00   0.10   0.03    -0.05   0.04   0.01    -0.03  -0.01   0.07
  19   1    -0.04  -0.19  -0.15    -0.00  -0.08  -0.07     0.04   0.08   0.09
  20   1     0.02   0.09  -0.03     0.02   0.05  -0.01     0.05  -0.13  -0.02
  21   1    -0.19   0.21   0.15    -0.06   0.07   0.05     0.01  -0.03  -0.02
  22   1    -0.08  -0.05  -0.23    -0.04  -0.02  -0.09    -0.03  -0.01  -0.08
  23   1    -0.00  -0.01   0.01    -0.01  -0.03   0.01    -0.01   0.14   0.01
  24   1    -0.02   0.00  -0.03     0.16  -0.05   0.31     0.00  -0.02  -0.01
  25   1     0.05  -0.00   0.10    -0.15   0.02  -0.30     0.03  -0.01   0.03
  26   1     0.02  -0.00  -0.03    -0.07   0.01   0.08     0.03   0.02  -0.02
                     34                     35                     36
                        a                      a                      a 
 Frequencies --  1088.1434              1094.7651              1113.0435
 Red. masses --    10.8068                10.4976                 8.6877
 Frc consts  --     0.0000                 0.0000                 0.0000
 IR Inten    --     9.7926                98.7578               135.0018
 Raman Activ --     0.0000                 0.0000                 0.0000
 Depolar     --     0.0000                 0.0000                 0.0000
 Atom AN      X      Y      Z        X      Y      Z        X      Y      Z
   1   6     0.40  -0.11  -0.39    -0.18   0.03   0.14    -0.09  -0.05  -0.02
   2   6    -0.08  -0.07   0.15     0.07   0.03  -0.02     0.11   0.09   0.17
   3   6     0.05  -0.02   0.04    -0.04   0.00   0.18     0.04  -0.07   0.01
   4   6    -0.01  -0.12   0.08    -0.11   0.18  -0.06     0.20  -0.06  -0.10
   5   6     0.07   0.12  -0.09     0.20   0.09  -0.08    -0.00   0.13   0.49
   6   6    -0.21   0.01   0.22    -0.44   0.11   0.31    -0.20   0.10  -0.08
   7   8     0.14  -0.11  -0.14     0.28  -0.23  -0.23     0.11  -0.14  -0.02
   8   8     0.00  -0.02   0.05     0.04  -0.01   0.04    -0.06  -0.05  -0.36
   9   8    -0.00   0.12  -0.07     0.03  -0.16   0.09    -0.02  -0.02   0.03
  10   8    -0.00  -0.00  -0.04    -0.05   0.02  -0.14    -0.00   0.00  -0.03
  11   8    -0.02   0.03  -0.10     0.01  -0.01  -0.01    -0.00   0.01  -0.11
  12   8    -0.30   0.18   0.28     0.10  -0.07  -0.10     0.07  -0.02  -0.04
  13   1     0.20  -0.13  -0.12    -0.12   0.04   0.05     0.14  -0.03  -0.04
  14   1     0.09   0.00   0.05     0.02  -0.00  -0.04    -0.27  -0.01   0.09
  15   1    -0.11  -0.02   0.05     0.14   0.01  -0.04    -0.14   0.02   0.07
  16   1    -0.00  -0.01  -0.01     0.11   0.03   0.05    -0.18  -0.04   0.02
  17   1    -0.02  -0.09   0.03     0.05   0.15  -0.04    -0.03   0.14  -0.04
  18   1     0.09   0.02  -0.06     0.14   0.04  -0.01     0.04   0.06   0.14
  19   1    -0.05  -0.07  -0.08    -0.10  -0.05  -0.05    -0.05   0.10   0.13
  20   1    -0.08   0.13   0.03    -0.15   0.12   0.06     0.12  -0.13  -0.02
  21   1    -0.02   0.04   0.02     0.00   0.04   0.01    -0.08   0.12   0.09
  22   1    -0.02  -0.02  -0.03    -0.08  -0.05  -0.19     0.03   0.01   0.03
  23   1     0.01  -0.03  -0.01     0.00   0.04   0.01    -0.00   0.11  -0.01
  24   1    -0.01   0.00  -0.03     0.04  -0.01   0.05    -0.01  -0.00  -0.02
  25   1     0.03  -0.00   0.04    -0.01  -0.00  -0.03    -0.05   0.01  -0.10
  26   1    -0.15   0.05   0.16     0.11  -0.02  -0.11    -0.14   0.01   0.15
                     37                     38                     39
                        a                      a                      a 
 Frequencies --  1118.2624              1138.7434              1145.9567
 Red. masses --    10.1560                 8.0917                 7.2110
 Frc consts  --     0.0000                 0.0000                 0.0000
 IR Inten    --    49.3994                58.4730               112.9226
 Raman Activ --     0.0000                 0.0000                 0.0000
 Depolar     --     0.0000                 0.0000                 0.0000
 Atom AN      X      Y      Z        X      Y      Z        X      Y      Z
   1   6     0.23   0.05  -0.03     0.18  -0.00   0.09     0.04   0.11   0.04
   2   6    -0.18  -0.13  -0.30    -0.04   0.03  -0.56    -0.07  -0.20  -0.13
   3   6    -0.22   0.00  -0.35     0.07  -0.02   0.15     0.04   0.20   0.30
   4   6     0.25   0.18  -0.10    -0.08  -0.03   0.02     0.03  -0.36   0.02
   5   6     0.02   0.01   0.19     0.02   0.01  -0.05    -0.11   0.11   0.21
   6   6    -0.16   0.12  -0.03     0.01  -0.03   0.04     0.02  -0.03   0.01
   7   8     0.10  -0.09  -0.02    -0.01   0.00  -0.02    -0.02  -0.05  -0.01
   8   8    -0.01  -0.00  -0.12     0.00  -0.00   0.03    -0.05  -0.03  -0.15
   9   8    -0.00  -0.12   0.09     0.00  -0.03   0.00    -0.04   0.16  -0.10
  10   8     0.03  -0.03   0.28    -0.01   0.03  -0.08    -0.07   0.02  -0.20
  11   8     0.01  -0.02   0.22     0.09  -0.10   0.39    -0.01   0.01   0.03
  12   8    -0.13   0.06   0.09    -0.01   0.03  -0.03    -0.05  -0.01   0.01
  13   1    -0.09   0.03   0.03     0.10   0.08   0.02    -0.17   0.01   0.05
  14   1     0.28   0.02  -0.09    -0.20  -0.02  -0.02     0.27   0.03  -0.05
  15   1     0.02  -0.03  -0.07    -0.26  -0.04  -0.22     0.16  -0.05  -0.08
  16   1    -0.05  -0.03  -0.16    -0.20   0.03   0.25     0.10   0.06   0.04
  17   1     0.03   0.07  -0.03     0.03   0.15  -0.03     0.11  -0.08  -0.01
  18   1    -0.08   0.04   0.10     0.05  -0.00  -0.03     0.19   0.01  -0.01
  19   1    -0.07   0.08   0.09     0.04  -0.03  -0.04     0.09  -0.00  -0.01
  20   1    -0.00  -0.09   0.00    -0.02   0.04   0.00     0.22   0.02  -0.04
  21   1     0.02  -0.02  -0.01    -0.02   0.03   0.02    -0.18   0.24   0.17
  22   1     0.00   0.00  -0.01    -0.00  -0.00  -0.01     0.05   0.02   0.10
  23   1    -0.01  -0.04   0.02    -0.00   0.13  -0.02     0.00   0.08  -0.03
  24   1     0.06  -0.02   0.15    -0.08   0.03  -0.15     0.04  -0.03   0.07
  25   1     0.04  -0.00   0.12    -0.06  -0.00  -0.05     0.06  -0.02   0.11
  26   1     0.09   0.01  -0.10    -0.17   0.01   0.16     0.14  -0.01  -0.14
                     40                     41                     42
                        a                      a                      a 
 Frequencies --  1173.5969              1193.1438              1204.4041
 Red. masses --     3.2069                 4.0598                 4.1765
 Frc consts  --     0.0000                 0.0000                 0.0000
 IR Inten    --    33.2565               134.7736                34.3040
 Raman Activ --     0.0000                 0.0000                 0.0000
 Depolar     --     0.0000                 0.0000                 0.0000
 Atom AN      X      Y      Z        X      Y      Z        X      Y      Z
   1   6     0.03  -0.01   0.01     0.01   0.04   0.01    -0.00  -0.11  -0.00
   2   6    -0.00   0.00  -0.09     0.01  -0.08  -0.03    -0.02   0.17  -0.03
   3   6     0.01  -0.02   0.24     0.01   0.04   0.19    -0.16  -0.12   0.00
   4   6    -0.01   0.01  -0.07     0.18  -0.07  -0.07     0.12   0.26  -0.20
   5   6     0.07   0.03   0.07     0.09   0.15   0.17    -0.10  -0.16   0.05
   6   6    -0.06   0.10  -0.12    -0.01  -0.17  -0.02     0.04   0.02   0.08
   7   8     0.05  -0.04   0.06     0.00   0.16   0.01    -0.03  -0.02  -0.07
   8   8     0.08   0.01   0.01    -0.08  -0.01  -0.14    -0.07   0.01  -0.05
   9   8     0.03   0.13  -0.03    -0.02   0.00  -0.00     0.01   0.00   0.07
  10   8    -0.05   0.05  -0.15    -0.06   0.04  -0.13    -0.03   0.04  -0.02
  11   8     0.01  -0.03   0.04    -0.01   0.00  -0.01    -0.00  -0.05   0.04
  12   8    -0.01   0.01  -0.00    -0.01  -0.01   0.00     0.02   0.02   0.01
  13   1     0.02   0.01   0.00    -0.05  -0.01   0.01     0.17   0.03  -0.03
  14   1    -0.04  -0.01  -0.01     0.05   0.01  -0.00    -0.16  -0.04  -0.00
  15   1     0.04  -0.02  -0.12     0.04  -0.02  -0.04     0.10   0.01  -0.20
  16   1     0.06   0.05   0.18    -0.05   0.02   0.10     0.27   0.04   0.07
  17   1    -0.13  -0.46   0.07    -0.32  -0.02   0.02    -0.12  -0.23   0.01
  18   1    -0.36   0.06   0.16     0.05   0.02   0.01     0.27  -0.03  -0.02
  19   1    -0.24   0.08   0.14    -0.02  -0.08  -0.06     0.33  -0.00  -0.09
  20   1     0.11  -0.13  -0.03    -0.49  -0.01   0.07    -0.06   0.08   0.02
  21   1     0.06  -0.08  -0.05     0.27  -0.34  -0.24    -0.13   0.17   0.11
  22   1    -0.12  -0.06  -0.31     0.11   0.05   0.27     0.09   0.05   0.22
  23   1     0.00  -0.35   0.06    -0.01   0.06  -0.01    -0.02  -0.32   0.07
  24   1     0.04   0.01   0.05     0.07  -0.02   0.12     0.08  -0.00   0.13
  25   1     0.01  -0.01   0.03     0.02  -0.01   0.04     0.02  -0.01   0.04
  26   1    -0.03   0.00   0.02     0.03  -0.00  -0.03    -0.08   0.01   0.08
                     43                     44                     45
                        a                      a                      a 
 Frequencies --  1218.2651              1225.0210              1249.2227
 Red. masses --     3.0660                 2.5499                 3.6942
 Frc consts  --     0.0000                 0.0000                 0.0000
 IR Inten    --    41.6794                12.3112                80.1697
 Raman Activ --     0.0000                 0.0000                 0.0000
 Depolar     --     0.0000                 0.0000                 0.0000
 Atom AN      X      Y      Z        X      Y      Z        X      Y      Z
   1   6     0.01   0.14  -0.01    -0.01  -0.01  -0.00     0.04   0.02  -0.00
   2   6     0.03  -0.25   0.04    -0.00   0.01   0.00     0.11  -0.05   0.02
   3   6    -0.07  -0.10  -0.01    -0.11  -0.06  -0.02     0.15   0.03   0.11
   4   6     0.06   0.17  -0.10     0.03   0.10  -0.06     0.17   0.11   0.00
   5   6     0.00  -0.09   0.01     0.13   0.15  -0.14     0.03  -0.11  -0.21
   6   6     0.01   0.04   0.03    -0.04  -0.04  -0.03     0.03   0.15   0.02
   7   8    -0.01  -0.03  -0.04     0.02  -0.03   0.10    -0.01  -0.10  -0.04
   8   8    -0.02   0.01  -0.01    -0.11  -0.05   0.05     0.00  -0.01   0.11
   9   8     0.02   0.00   0.04     0.00  -0.05   0.04    -0.01  -0.07   0.02
  10   8     0.07   0.03  -0.01     0.01   0.03  -0.01    -0.07   0.00  -0.06
  11   8     0.07   0.08  -0.03     0.02  -0.00   0.01    -0.09   0.01  -0.07
  12   8    -0.03  -0.02  -0.00     0.00   0.00   0.00    -0.01  -0.01  -0.01
  13   1    -0.20  -0.05   0.03     0.02  -0.00  -0.01    -0.13  -0.01   0.03
  14   1     0.23   0.05   0.00     0.01  -0.00  -0.00    -0.04   0.00   0.01
  15   1    -0.20   0.00   0.38     0.00   0.00   0.00    -0.01  -0.02  -0.03
  16   1    -0.19   0.08   0.42     0.12   0.06   0.15    -0.35  -0.08  -0.06
  17   1    -0.11  -0.10   0.01    -0.09   0.00  -0.00    -0.53   0.08   0.04
  18   1     0.03  -0.00   0.02     0.17  -0.14  -0.33    -0.24  -0.12  -0.14
  19   1     0.16   0.01  -0.03    -0.55  -0.02   0.12     0.07   0.05   0.01
  20   1    -0.04   0.03   0.01     0.40  -0.06  -0.08     0.08   0.02  -0.01
  21   1    -0.08   0.10   0.06     0.04  -0.05  -0.01    -0.16   0.20   0.13
  22   1     0.02   0.01   0.05     0.14   0.08   0.37     0.02   0.01   0.05
  23   1    -0.00  -0.19   0.04     0.00  -0.02   0.00    -0.00   0.12  -0.02
  24   1    -0.14   0.07  -0.28     0.00   0.01  -0.00     0.10  -0.03   0.19
  25   1    -0.13   0.03  -0.28    -0.03   0.01  -0.06     0.13  -0.03   0.25
  26   1     0.10  -0.00  -0.09    -0.00   0.00   0.01     0.01  -0.00  -0.02
                     46                     47                     48
                        a                      a                      a 
 Frequencies --  1265.7385              1274.3198              1293.9924
 Red. masses --     2.5543                 3.6370                 4.0612
 Frc consts  --     0.0000                 0.0000                 0.0000
 IR Inten    --    19.8140                55.5321                 3.9398
 Raman Activ --     0.0000                 0.0000                 0.0000
 Depolar     --     0.0000                 0.0000                 0.0000
 Atom AN      X      Y      Z        X      Y      Z        X      Y      Z
   1   6     0.11   0.05   0.02    -0.22   0.07  -0.00     0.10  -0.09   0.03
   2   6     0.01   0.10   0.06    -0.23   0.03  -0.05    -0.01   0.05   0.04
   3   6     0.14  -0.14   0.10     0.03  -0.02   0.10    -0.20  -0.12  -0.20
   4   6    -0.04   0.04  -0.03     0.13  -0.08   0.06     0.19  -0.19   0.19
   5   6    -0.07  -0.01   0.00     0.03  -0.02  -0.06    -0.00   0.02  -0.02
   6   6     0.00  -0.02   0.00     0.03   0.08  -0.00     0.04   0.08  -0.01
   7   8    -0.00   0.02   0.01    -0.00  -0.04  -0.02    -0.00  -0.04  -0.03
   8   8     0.01   0.00   0.01     0.00  -0.00   0.03     0.03  -0.01   0.03
   9   8     0.01   0.02   0.00    -0.02  -0.02  -0.03    -0.05  -0.02  -0.06
  10   8    -0.11   0.02  -0.07    -0.03   0.00  -0.03    -0.03   0.08  -0.03
  11   8     0.09  -0.02   0.04     0.17  -0.03   0.11    -0.01   0.01  -0.02
  12   8     0.01   0.03  -0.10     0.00  -0.03   0.09     0.03   0.05  -0.08
  13   1    -0.42  -0.00   0.10     0.47  -0.01  -0.12    -0.22   0.03   0.07
  14   1     0.09   0.01  -0.04     0.21   0.04   0.02    -0.04  -0.04  -0.05
  15   1    -0.54  -0.01   0.02    -0.03   0.01  -0.01     0.03   0.03   0.08
  16   1     0.16  -0.12  -0.31     0.19  -0.03  -0.15     0.48   0.18   0.40
  17   1     0.02  -0.07   0.00    -0.23   0.04   0.03    -0.07   0.14   0.03
  18   1     0.09  -0.00  -0.02    -0.21  -0.04  -0.02    -0.26  -0.05  -0.03
  19   1    -0.00  -0.01  -0.00     0.03   0.02   0.00     0.04   0.03   0.00
  20   1     0.04   0.00  -0.01    -0.04  -0.00   0.01    -0.10  -0.01   0.02
  21   1     0.02  -0.02  -0.01    -0.06   0.08   0.05    -0.05   0.06   0.04
  22   1    -0.00  -0.01  -0.00    -0.00  -0.00  -0.00    -0.03  -0.02  -0.07
  23   1     0.01  -0.06   0.01    -0.00   0.16  -0.03     0.01   0.25  -0.06
  24   1     0.17  -0.06   0.33     0.04  -0.03   0.08     0.04  -0.03   0.10
  25   1    -0.12   0.02  -0.23    -0.22   0.05  -0.45     0.01   0.00   0.02
  26   1    -0.10   0.02   0.10     0.14  -0.01  -0.11    -0.16   0.02   0.15
                     49                     50                     51
                        a                      a                      a 
 Frequencies --  1301.5396              1309.2160              1318.9640
 Red. masses --     4.0323                 4.1815                 4.2516
 Frc consts  --     0.0000                 0.0000                 0.0000
 IR Inten    --    33.4989                27.4227                77.1589
 Raman Activ --     0.0000                 0.0000                 0.0000
 Depolar     --     0.0000                 0.0000                 0.0000
 Atom AN      X      Y      Z        X      Y      Z        X      Y      Z
   1   6    -0.04  -0.02   0.03     0.09  -0.20   0.11    -0.02   0.12  -0.05
   2   6    -0.02  -0.03  -0.27    -0.19  -0.02  -0.20     0.12   0.01  -0.10
   3   6     0.16  -0.13  -0.07     0.03   0.06   0.17     0.10  -0.07  -0.09
   4   6     0.07   0.05   0.02    -0.11   0.02  -0.05    -0.25  -0.01   0.00
   5   6    -0.25   0.02  -0.01     0.19  -0.02   0.01     0.24   0.03   0.14
   6   6    -0.06  -0.08   0.01     0.06   0.06  -0.01     0.11   0.11  -0.04
   7   8     0.01   0.07   0.04    -0.01  -0.06  -0.03    -0.01  -0.09  -0.06
   8   8     0.08   0.01   0.05    -0.07  -0.00  -0.04    -0.07  -0.03  -0.03
   9   8    -0.01  -0.03  -0.01     0.02   0.02   0.01     0.02   0.04  -0.00
  10   8    -0.13   0.07  -0.05     0.01  -0.04   0.00    -0.08   0.04  -0.02
  11   8    -0.05   0.07  -0.01     0.03   0.06  -0.00    -0.05   0.01   0.00
  12   8    -0.01  -0.02   0.05     0.05   0.09  -0.11    -0.05  -0.08   0.10
  13   1     0.24   0.02  -0.04    -0.08   0.10   0.07     0.12  -0.05  -0.05
  14   1    -0.07  -0.01   0.02    -0.00  -0.08  -0.11    -0.14   0.04   0.09
  15   1     0.05   0.12   0.54     0.35   0.13   0.47    -0.20   0.02   0.12
  16   1    -0.02   0.01   0.14    -0.01  -0.08  -0.27     0.03   0.02   0.10
  17   1    -0.01  -0.04   0.02     0.05  -0.05  -0.01     0.35  -0.05  -0.03
  18   1     0.26   0.03  -0.01    -0.15  -0.03   0.00    -0.27  -0.18  -0.21
  19   1     0.04  -0.02  -0.01    -0.05   0.01   0.01    -0.04   0.03   0.02
  20   1     0.17   0.02  -0.04    -0.13  -0.01   0.03    -0.29  -0.03   0.06
  21   1     0.09  -0.11  -0.07    -0.07   0.08   0.06    -0.10   0.12   0.08
  22   1    -0.07  -0.05  -0.19     0.07   0.04   0.18     0.07   0.04   0.19
  23   1     0.01   0.07  -0.02     0.00  -0.06   0.01     0.01  -0.08   0.01
  24   1     0.17  -0.06   0.34    -0.02   0.01  -0.05     0.10  -0.03   0.21
  25   1     0.05   0.00   0.11    -0.04   0.02  -0.08     0.06  -0.01   0.13
  26   1     0.05  -0.01  -0.05    -0.26   0.04   0.25     0.20  -0.03  -0.20
                     52                     53                     54
                        a                      a                      a 
 Frequencies --  1328.5161              1341.0163              1346.1624
 Red. masses --     3.6368                 3.9796                 3.5753
 Frc consts  --     0.0000                 0.0000                 0.0000
 IR Inten    --    19.1825                58.6205                94.9438
 Raman Activ --     0.0000                 0.0000                 0.0000
 Depolar     --     0.0000                 0.0000                 0.0000
 Atom AN      X      Y      Z        X      Y      Z        X      Y      Z
   1   6    -0.03  -0.05   0.03     0.33   0.15  -0.09     0.02  -0.00  -0.00
   2   6    -0.04  -0.01   0.04    -0.17   0.03  -0.05    -0.04   0.00   0.05
   3   6     0.00   0.03   0.02    -0.11   0.03   0.12    -0.01  -0.03   0.01
   4   6     0.06   0.01  -0.12     0.10  -0.02  -0.03     0.02   0.32   0.13
   5   6    -0.17   0.20   0.29    -0.05   0.03   0.02     0.07  -0.01   0.08
   6   6    -0.03   0.01  -0.07    -0.02  -0.01  -0.01    -0.07  -0.01  -0.01
   7   8     0.01   0.04   0.00     0.00   0.01   0.01     0.00   0.01   0.00
   8   8     0.12  -0.08   0.11     0.03  -0.01   0.02    -0.02  -0.01  -0.02
   9   8     0.01   0.01   0.04    -0.01  -0.01   0.00    -0.07  -0.20  -0.14
  10   8     0.02  -0.02   0.02     0.05  -0.03   0.01     0.02  -0.00  -0.01
  11   8     0.02  -0.00   0.00     0.06   0.01   0.03     0.02  -0.01  -0.00
  12   8     0.02   0.04  -0.04    -0.08  -0.13   0.10     0.01   0.00  -0.01
  13   1    -0.00   0.02   0.01    -0.22  -0.07   0.03    -0.05  -0.01   0.01
  14   1     0.12  -0.02  -0.05    -0.60   0.03   0.17    -0.01  -0.00  -0.01
  15   1     0.07  -0.01  -0.06     0.13   0.05   0.11     0.04  -0.01  -0.07
  16   1    -0.07  -0.02  -0.04     0.15  -0.03  -0.17    -0.09  -0.02   0.01
  17   1     0.02   0.03  -0.03    -0.12   0.01   0.01     0.17  -0.60   0.14
  18   1    -0.02  -0.41  -0.64     0.00  -0.04  -0.07    -0.01  -0.06  -0.06
  19   1     0.15   0.03  -0.01     0.03   0.00  -0.00     0.09   0.02   0.00
  20   1    -0.07  -0.03   0.00     0.03  -0.00  -0.01     0.02   0.01  -0.01
  21   1     0.04  -0.05  -0.04     0.02  -0.02  -0.01     0.01  -0.02  -0.01
  22   1    -0.11  -0.07  -0.27    -0.03  -0.02  -0.07     0.02   0.01   0.04
  23   1    -0.01  -0.10   0.03    -0.01   0.02  -0.00     0.04   0.56  -0.16
  24   1    -0.04   0.01  -0.08    -0.06   0.02  -0.13    -0.03  -0.01  -0.04
  25   1    -0.02   0.00  -0.04    -0.07   0.02  -0.14    -0.02   0.00  -0.04
  26   1    -0.09   0.01   0.09     0.26  -0.05  -0.27    -0.01   0.00   0.01
                     55                     56                     57
                        a                      a                      a 
 Frequencies --  1363.7666              1375.2938              1463.8874
 Red. masses --     5.0377                 6.0595                 1.8097
 Frc consts  --     0.0000                 0.0000                 0.0000
 IR Inten    --    17.5170                 2.5009                 1.4981
 Raman Activ --     0.0000                 0.0000                 0.0000
 Depolar     --     0.0000                 0.0000                 0.0000
 Atom AN      X      Y      Z        X      Y      Z        X      Y      Z
   1   6     0.01   0.00  -0.00     0.12   0.00  -0.01    -0.03  -0.20  -0.18
   2   6    -0.03   0.00   0.01    -0.39  -0.01   0.23    -0.00  -0.01  -0.01
   3   6     0.03   0.00  -0.03     0.36  -0.02  -0.24    -0.00   0.00   0.00
   4   6    -0.10  -0.07   0.01    -0.10   0.00  -0.00    -0.00   0.00   0.00
   5   6     0.32  -0.00  -0.02    -0.03  -0.01  -0.01     0.00  -0.00   0.00
   6   6    -0.44  -0.10  -0.01     0.05   0.01   0.01    -0.00  -0.00  -0.00
   7   8     0.00   0.14   0.07    -0.00  -0.01  -0.01     0.00  -0.00  -0.00
   8   8    -0.07  -0.00  -0.02    -0.00   0.00  -0.00    -0.00  -0.00  -0.00
   9   8     0.02   0.04   0.01     0.01   0.01   0.02    -0.00  -0.00  -0.00
  10   8    -0.02   0.01  -0.01    -0.11   0.05  -0.02     0.00  -0.00  -0.00
  11   8     0.01   0.00   0.00     0.11  -0.02   0.02     0.01   0.00   0.01
  12   8    -0.00  -0.00   0.00     0.01  -0.00  -0.02     0.00  -0.02  -0.02
  13   1    -0.00   0.00   0.00    -0.12  -0.01   0.03    -0.06   0.68   0.09
  14   1    -0.01  -0.00   0.00    -0.09  -0.01   0.01     0.12   0.13   0.65
  15   1     0.01   0.00  -0.00     0.34  -0.03  -0.22    -0.00  -0.01  -0.01
  16   1     0.02   0.01   0.04    -0.29   0.04   0.27    -0.01   0.00   0.01
  17   1     0.03   0.08  -0.02     0.09   0.06  -0.02     0.00  -0.00   0.00
  18   1    -0.27  -0.05  -0.02     0.05   0.02   0.02     0.00  -0.00  -0.00
  19   1     0.52   0.03  -0.08    -0.06  -0.01   0.01     0.00   0.00   0.01
  20   1     0.40   0.00  -0.10    -0.04   0.00   0.01    -0.00   0.01  -0.00
  21   1     0.14  -0.16  -0.12    -0.02   0.02   0.01    -0.00   0.00   0.00
  22   1     0.06   0.03   0.17     0.01   0.00   0.02     0.00   0.00   0.00
  23   1    -0.01  -0.08   0.02    -0.01  -0.07   0.02    -0.00   0.00  -0.00
  24   1     0.03  -0.01   0.06     0.13  -0.04   0.27     0.00   0.00   0.00
  25   1    -0.01   0.00  -0.02    -0.12   0.02  -0.26    -0.00  -0.01  -0.00
  26   1     0.00  -0.00  -0.00    -0.01  -0.00   0.01     0.02  -0.01  -0.02
                     58                     59                     60
                        a                      a                      a 
 Frequencies --  1471.9561              2834.3076              2866.9091
 Red. masses --     1.8249                 1.7063                 1.7187
 Frc consts  --     0.0000                 0.0000                 0.0000
 IR Inten    --     1.1092                43.5902                29.2221
 Raman Activ --     0.0000                 0.0000                 0.0000
 Depolar     --     0.0000                 0.0000                 0.0000
 Atom AN      X      Y      Z        X      Y      Z        X      Y      Z
   1   6    -0.00  -0.00  -0.00    -0.00   0.00  -0.01    -0.00   0.00  -0.00
   2   6     0.00  -0.00   0.00     0.01  -0.25   0.04     0.00  -0.01   0.00
   3   6     0.00  -0.00  -0.00    -0.00   0.02  -0.01     0.01  -0.05   0.01
   4   6     0.00   0.01   0.00     0.00   0.00   0.00     0.00   0.01   0.00
   5   6    -0.01   0.01   0.01    -0.00   0.00  -0.00    -0.02   0.21  -0.12
   6   6     0.02   0.24   0.12    -0.00   0.00  -0.00     0.01  -0.02   0.03
   7   8    -0.02   0.03   0.02    -0.00   0.00   0.00     0.00  -0.00   0.00
   8   8    -0.00  -0.00  -0.01    -0.00   0.00  -0.00    -0.00  -0.00  -0.02
   9   8    -0.00  -0.00  -0.00    -0.00   0.00  -0.00    -0.00  -0.00   0.00
  10   8     0.00  -0.00   0.00    -0.00   0.00  -0.00     0.00  -0.00   0.00
  11   8    -0.00   0.00  -0.00     0.01  -0.00   0.02     0.00   0.00   0.00
  12   8     0.00  -0.00  -0.00     0.00   0.00   0.00    -0.00   0.00   0.00
  13   1    -0.00   0.01   0.00     0.00  -0.00   0.02    -0.00   0.00  -0.00
  14   1     0.00   0.00   0.01     0.00  -0.04   0.01     0.00  -0.00   0.00
  15   1    -0.00  -0.00  -0.00    -0.06   0.94  -0.20    -0.00   0.01  -0.00
  16   1    -0.00   0.00   0.00     0.02  -0.10   0.03    -0.03   0.18  -0.06
  17   1     0.00  -0.01   0.00     0.00  -0.00  -0.01    -0.00  -0.00  -0.02
  18   1     0.00   0.01   0.01     0.00  -0.01   0.00     0.09  -0.78   0.51
  19   1    -0.05  -0.32  -0.61     0.00  -0.00   0.00    -0.01   0.10  -0.05
  20   1     0.08  -0.66   0.10    -0.00  -0.00  -0.00    -0.01  -0.01  -0.05
  21   1     0.00   0.00  -0.00     0.00  -0.00   0.00     0.00   0.00  -0.00
  22   1    -0.00   0.00  -0.01     0.00  -0.00  -0.00     0.00  -0.00  -0.00
  23   1     0.00   0.01  -0.00     0.00  -0.00   0.00     0.00  -0.00  -0.00
  24   1    -0.00   0.00  -0.00     0.00  -0.00  -0.00    -0.00   0.00   0.00
  25   1     0.00  -0.00   0.00    -0.00  -0.00   0.00    -0.00  -0.00  -0.00
  26   1     0.00  -0.00  -0.00    -0.00   0.00   0.00    -0.00  -0.00   0.00
                     61                     62                     63
                        a                      a                      a 
 Frequencies --  2883.3121              2917.8895              2935.8738
 Red. masses --     1.7371                 1.9918                 1.4506
 Frc consts  --     0.0000                 0.0000                 0.0000
 IR Inten    --    91.4014                55.9648                37.6670
 Raman Activ --     0.0000                 0.0000                 0.0000
 Depolar     --     0.0000                 0.0000                 0.0000
 Atom AN      X      Y      Z        X      Y      Z        X      Y      Z
   1   6     0.00  -0.01   0.00     0.00  -0.00   0.00     0.00   0.00   0.00
   2   6    -0.00   0.04  -0.01    -0.00   0.00  -0.00     0.00  -0.00   0.00
   3   6    -0.03   0.24  -0.06    -0.00   0.01  -0.00     0.00  -0.00   0.00
   4   6    -0.00   0.01   0.00     0.00   0.00   0.01     0.00   0.00   0.01
   5   6    -0.00   0.04  -0.02    -0.00   0.03  -0.03    -0.00  -0.01   0.00
   6   6     0.00  -0.01   0.01    -0.05   0.15  -0.25    -0.02  -0.16  -0.12
   7   8     0.00  -0.00   0.00    -0.00   0.00  -0.00     0.01  -0.01  -0.01
   8   8    -0.00  -0.00  -0.00    -0.00  -0.00  -0.00     0.00   0.00   0.00
   9   8     0.00  -0.00   0.00    -0.00  -0.00   0.00     0.00   0.00   0.00
  10   8    -0.00   0.01  -0.01     0.00  -0.00  -0.00     0.00  -0.00   0.00
  11   8     0.00  -0.00  -0.00     0.00  -0.00   0.00    -0.00   0.00   0.00
  12   8     0.00  -0.00   0.00    -0.00  -0.00   0.00    -0.00   0.00   0.00
  13   1    -0.00   0.00  -0.01    -0.00   0.00  -0.00    -0.00   0.00  -0.00
  14   1    -0.00   0.02  -0.00    -0.00   0.00  -0.00     0.00  -0.00   0.00
  15   1     0.01  -0.10   0.02     0.00  -0.00   0.00    -0.00   0.00  -0.00
  16   1     0.13  -0.89   0.27     0.00  -0.02   0.01    -0.00   0.01  -0.00
  17   1    -0.00  -0.00  -0.02    -0.00  -0.00  -0.03    -0.01  -0.01  -0.05
  18   1     0.02  -0.16   0.10     0.01  -0.11   0.07    -0.00   0.02  -0.02
  19   1    -0.01   0.04  -0.02     0.09  -0.66   0.33    -0.09   0.51  -0.31
  20   1    -0.00  -0.01  -0.02     0.10   0.11   0.56     0.13   0.09   0.75
  21   1     0.00   0.00  -0.00     0.00  -0.00   0.00     0.00  -0.00  -0.00
  22   1     0.00   0.00  -0.00     0.00   0.00  -0.00    -0.00   0.00   0.00
  23   1    -0.00  -0.00   0.00     0.00  -0.00  -0.00    -0.00   0.00  -0.00
  24   1    -0.00  -0.00  -0.00    -0.00   0.00   0.00    -0.00   0.00   0.00
  25   1    -0.00   0.00   0.00    -0.00   0.00  -0.00     0.00  -0.00  -0.00
  26   1     0.00   0.00  -0.00     0.00  -0.00  -0.00    -0.00  -0.00  -0.00
                     64                     65                     66
                        a                      a                      a 
 Frequencies --  2950.9276              2975.2445              2991.1071
 Red. masses --     1.7590                 1.7550                 1.6988
 Frc consts  --     0.0000                 0.0000                 0.0000
 IR Inten    --    33.8959                23.8642                26.1554
 Raman Activ --     0.0000                 0.0000                 0.0000
 Depolar     --     0.0000                 0.0000                 0.0000
 Atom AN      X      Y      Z        X      Y      Z        X      Y      Z
   1   6    -0.06   0.06  -0.25    -0.00   0.00  -0.00     0.01  -0.25   0.04
   2   6    -0.00   0.01  -0.01    -0.00  -0.00  -0.00    -0.00  -0.02   0.00
   3   6    -0.00   0.00  -0.00    -0.00   0.00  -0.01     0.00  -0.00   0.00
   4   6     0.00   0.00   0.00    -0.02  -0.05  -0.25    -0.00  -0.00  -0.00
   5   6    -0.00   0.00  -0.00    -0.00   0.00  -0.01     0.00  -0.00   0.00
   6   6    -0.00   0.00  -0.00    -0.00  -0.00  -0.01     0.00  -0.00   0.00
   7   8     0.00   0.00   0.00     0.00  -0.00  -0.00    -0.00   0.00  -0.00
   8   8     0.00   0.00   0.00    -0.00   0.00   0.00     0.00   0.00   0.00
   9   8     0.00  -0.00   0.00    -0.00   0.01  -0.00    -0.00   0.00  -0.00
  10   8     0.00  -0.00   0.00     0.00   0.00   0.00     0.00   0.00   0.00
  11   8    -0.00  -0.00   0.00     0.00  -0.00   0.00     0.00   0.00   0.00
  12   8     0.00  -0.00  -0.01     0.00   0.00  -0.00     0.01  -0.00  -0.00
  13   1     0.20  -0.13   0.93     0.00  -0.00   0.01     0.01  -0.04   0.07
  14   1    -0.01  -0.06  -0.02     0.00  -0.01   0.00    -0.07   0.94  -0.20
  15   1     0.00  -0.02   0.00    -0.00   0.00  -0.00    -0.00   0.04  -0.01
  16   1     0.00  -0.00   0.00     0.00  -0.01   0.00    -0.00   0.02  -0.01
  17   1    -0.00  -0.00  -0.01     0.09   0.16   0.95     0.00   0.00   0.00
  18   1     0.00  -0.00   0.00     0.00  -0.02   0.01    -0.00   0.00  -0.00
  19   1     0.00  -0.00   0.00    -0.00   0.01  -0.01    -0.00   0.00  -0.00
  20   1     0.00   0.00   0.00     0.01   0.01   0.05     0.00   0.00   0.00
  21   1    -0.00  -0.00  -0.00     0.00   0.00  -0.00     0.00  -0.00  -0.00
  22   1    -0.00   0.00   0.00     0.00  -0.00  -0.00    -0.00  -0.00   0.00
  23   1    -0.00  -0.00   0.00     0.00  -0.00  -0.01     0.00  -0.00   0.00
  24   1    -0.00   0.00   0.00     0.00   0.00  -0.00    -0.00  -0.00   0.00
  25   1    -0.00   0.00   0.00    -0.00  -0.00   0.00    -0.00  -0.00  -0.00
  26   1     0.00   0.00   0.00    -0.00   0.00  -0.00     0.00  -0.01   0.00
                     67                     68                     69
                        a                      a                      a 
 Frequencies --  3417.9132              3429.1720              3461.7960
 Red. masses --     1.8721                 1.8662                 1.8753
 Frc consts  --     0.0000                 0.0000                 0.0000
 IR Inten    --   116.6842                86.7216                48.8422
 Raman Activ --     0.0000                 0.0000                 0.0000
 Depolar     --     0.0000                 0.0000                 0.0000
 Atom AN      X      Y      Z        X      Y      Z        X      Y      Z
   1   6     0.00   0.00   0.00    -0.00  -0.00  -0.00    -0.00   0.00   0.00
   2   6    -0.00  -0.00  -0.00     0.00   0.00   0.00     0.00   0.00  -0.01
   3   6     0.00  -0.00  -0.01    -0.00  -0.00   0.00     0.00  -0.00  -0.00
   4   6    -0.00   0.00  -0.00    -0.00   0.01  -0.01     0.00   0.00   0.00
   5   6    -0.00   0.00   0.00     0.00   0.00  -0.00    -0.00  -0.00  -0.00
   6   6    -0.00  -0.00   0.00    -0.00  -0.00  -0.00     0.00   0.00  -0.00
   7   8     0.00  -0.00  -0.00     0.00  -0.00   0.00     0.00   0.00   0.00
   8   8     0.01  -0.00  -0.01    -0.01   0.00   0.00     0.00  -0.00  -0.00
   9   8    -0.05  -0.02  -0.09    -0.10  -0.04  -0.19    -0.00  -0.00  -0.00
  10   8     0.17  -0.07  -0.11    -0.08   0.04   0.05    -0.00   0.00   0.00
  11   8     0.00   0.00  -0.00    -0.00  -0.00   0.00     0.21   0.01  -0.11
  12   8    -0.00  -0.00   0.00     0.00   0.00  -0.00    -0.00  -0.00  -0.00
  13   1    -0.00   0.00  -0.00    -0.00  -0.00   0.00     0.00  -0.00  -0.00
  14   1     0.00  -0.00  -0.00    -0.00  -0.00   0.00    -0.00  -0.00  -0.00
  15   1     0.00   0.00  -0.00     0.00  -0.00  -0.00     0.00  -0.00   0.00
  16   1    -0.00  -0.00   0.00    -0.00   0.00  -0.00    -0.00   0.00  -0.00
  17   1     0.00   0.00   0.00    -0.00   0.00   0.00    -0.00  -0.00  -0.00
  18   1     0.00   0.00  -0.00     0.00  -0.00   0.00    -0.00   0.00  -0.00
  19   1    -0.00   0.00  -0.00    -0.00   0.00  -0.00     0.00  -0.00   0.00
  20   1    -0.00  -0.00  -0.00     0.00   0.00   0.00     0.00  -0.00  -0.00
  21   1     0.00   0.00   0.00     0.00   0.00   0.00    -0.00  -0.00  -0.00
  22   1    -0.05   0.01   0.02     0.03  -0.01  -0.01    -0.00   0.00   0.00
  23   1     0.19   0.06   0.38     0.38   0.12   0.77     0.00   0.00   0.00
  24   1    -0.69   0.29   0.45     0.34  -0.14  -0.22     0.01  -0.00  -0.01
  25   1    -0.01  -0.00   0.00     0.00   0.00  -0.00    -0.85  -0.06   0.47
  26   1    -0.00   0.00  -0.00     0.00  -0.00   0.00    -0.01   0.02  -0.00
                     70                     71                     72
                        a                      a                      a 
 Frequencies --  3496.9117              3539.1346              3581.4510
 Red. masses --     1.8707                 1.8728                 1.8783
 Frc consts  --     0.0000                 0.0000                 0.0000
 IR Inten    --    43.0934                 9.1675                14.4760
 Raman Activ --     0.0000                 0.0000                 0.0000
 Depolar     --     0.0000                 0.0000                 0.0000
 Atom AN      X      Y      Z        X      Y      Z        X      Y      Z
   1   6    -0.00   0.00   0.00     0.00  -0.01  -0.00    -0.00  -0.00   0.00
   2   6    -0.00   0.00   0.00    -0.00   0.00   0.00    -0.00  -0.00  -0.00
   3   6     0.00  -0.00  -0.00    -0.00  -0.00  -0.00    -0.00  -0.00   0.00
   4   6     0.00   0.00   0.00    -0.00   0.00  -0.00    -0.00  -0.00  -0.00
   5   6    -0.00   0.00   0.01    -0.00  -0.00   0.00    -0.00   0.00   0.00
   6   6     0.00  -0.00  -0.00     0.00   0.00  -0.00    -0.00  -0.00   0.00
   7   8    -0.00  -0.00   0.00     0.00   0.00   0.00    -0.20  -0.13  -0.03
   8   8    -0.22   0.05   0.08    -0.00   0.00   0.00     0.00  -0.00  -0.00
   9   8     0.00  -0.00  -0.00    -0.00  -0.00   0.00     0.00   0.00   0.00
  10   8     0.01  -0.00  -0.01    -0.00   0.00   0.00    -0.00   0.00   0.00
  11   8     0.00   0.00  -0.00    -0.00  -0.00   0.00     0.00   0.00  -0.00
  12   8    -0.00   0.00  -0.00     0.04  -0.23   0.06     0.00  -0.00   0.00
  13   1     0.00  -0.00  -0.00    -0.00   0.00  -0.00    -0.00  -0.00   0.00
  14   1     0.00  -0.00   0.00     0.00   0.01  -0.01     0.00  -0.00   0.00
  15   1     0.00  -0.00   0.00     0.00  -0.00   0.00    -0.00   0.00   0.00
  16   1    -0.00   0.00  -0.00    -0.00   0.00   0.00     0.00   0.00  -0.00
  17   1    -0.00   0.00  -0.00     0.00  -0.00   0.00    -0.00   0.00  -0.00
  18   1    -0.00   0.00  -0.00    -0.00  -0.00  -0.00     0.00   0.00  -0.00
  19   1    -0.00   0.00  -0.00     0.00   0.00   0.00     0.00   0.00   0.00
  20   1    -0.00   0.00   0.00     0.00  -0.00   0.00     0.00   0.00   0.00
  21   1     0.01   0.00   0.00    -0.00  -0.00  -0.00     0.82   0.51   0.10
  22   1     0.88  -0.22  -0.34     0.00  -0.00  -0.00    -0.01   0.00   0.00
  23   1    -0.00  -0.00   0.00     0.00   0.00  -0.00    -0.00  -0.00  -0.00
  24   1    -0.05   0.02   0.03     0.00  -0.00  -0.00     0.00  -0.00  -0.00
  25   1    -0.00  -0.00   0.00     0.02  -0.00  -0.01    -0.00  -0.00   0.00
  26   1     0.00  -0.00   0.00    -0.17   0.93  -0.22    -0.00   0.00  -0.00
