26
 energy: -44.363046758795 gnorm: 0.000166042035 xtb: 6.7.1pre (5071a88)
C           -3.16924125118650       -0.52106726407670        0.31063080447343
C           -1.84396858866503        0.16668229791329        0.65990714867836
C           -0.68164297057558       -0.42301033714809       -0.14563737212055
C            0.60325526120449        0.39219335230811        0.11460373743725
C            1.84367697169524       -0.38731971059067       -0.37043880328271
C            3.10672826631458        0.45951958989380       -0.20175591040993
O            4.17432128256445       -0.25824977838987       -0.79336118099704
O            1.68086293276948       -0.73816213097815       -1.73143084539673
O            0.50677973340554        1.64073093557231       -0.51457419497601
O           -1.01251801757489       -0.36753129952099       -1.51187343031637
O           -1.56475344026027        0.00623628460286        2.03057997911465
O           -4.20668107974390       -0.03720803638449        1.13470760154764
H           -3.39173018868318       -0.38556678320817       -0.75193379991947
H           -3.09220189347495       -1.58884351672733        0.52782599486286
H           -1.92132915226162        1.24148130727312        0.41986147221153
H           -0.52488195817735       -1.46030836904413        0.18339669508919
H            0.70201597831507        0.57421856667789        1.18801747789386
H            1.94636483662944       -1.30394787979202        0.23076381199125
H            2.95749291105519        1.42264281259756       -0.70504482782360
H            3.28651937078022        0.63533463951071        0.86457553329134
H            4.98464943545400        0.24934750454124       -0.69300699199580
H            2.56337500457318       -0.95358953446401       -2.06119433974911
H            0.07878559466229        1.48168933694407       -1.37104011953392
H           -0.23275438431877       -0.68557898004436       -1.99551206527253
H           -2.42013892964369       -0.04606083155855        2.48174472715056
H           -4.37298672485736        0.88636682409249        0.91335189805218
