      -----------------------------------------------------------      
     |                   =====================                   |     
     |                           x T B                           |     
     |                   =====================                   |     
     |                         S. Grimme                         |     
     |          Mulliken Center for Theoretical Chemistry        |     
     |                    University of Bonn                     |     
      -----------------------------------------------------------      

   * xtb version 6.7.1pre (5071a88) compiled by 'Marcel@Raven' on 2024-07-23

   xtb is free software: you can redistribute it and/or modify it under
   the terms of the GNU Lesser General Public License as published by
   the Free Software Foundation, either version 3 of the License, or
   (at your option) any later version.
   
   xtb is distributed in the hope that it will be useful,
   but WITHOUT ANY WARRANTY; without even the implied warranty of
   MERCHANTABILITY or FITNESS FOR A PARTICULAR PURPOSE.  See the
   GNU Lesser General Public License for more details.
   
   Cite this work as:
   * C. Bannwarth, E. Caldeweyher, S. Ehlert, A. Hansen, P. Pracht,
     J. Seibert, S. Spicher, S. Grimme, WIREs Comput. Mol. Sci., 2020, 11,
     e01493. DOI: 10.1002/wcms.1493
   
   for GFN2-xTB:
   * C. Bannwarth, S. Ehlert and S. Grimme., J. Chem. Theory Comput., 2019,
     15, 1652-1671. DOI: 10.1021/acs.jctc.8b01176
   for GFN1-xTB:
   * S. Grimme, C. Bannwarth, P. Shushkov, J. Chem. Theory Comput., 2017,
     13, 1989-2009. DOI: 10.1021/acs.jctc.7b00118
   for GFN0-xTB:
   * P. Pracht, E. Caldeweyher, S. Ehlert, S. Grimme, ChemRxiv, 2019, preprint.
     DOI: 10.26434/chemrxiv.8326202.v1
   for GFN-FF:
   * S. Spicher and S. Grimme, Angew. Chem. Int. Ed., 2020, 59, 15665-15673.
     DOI: 10.1002/anie.202004239
   
   for ALPB and GBSA implicit solvation:
   * S. Ehlert, M. Stahn, S. Spicher, S. Grimme, J. Chem. Theory Comput.,
     2021, 17, 4250-4261. DOI: 10.1021/acs.jctc.1c00471
   
   for ddCOSMO and CPCM-X implicit solvation:
   * M. Stahn, S. Ehlert, S. Grimme, J. Phys. Chem. A,
     2023, XX, XXXX-XXXX. DOI: 10.1021/acs.jpca.3c04382
   
   for DFT-D4:
   * E. Caldeweyher, C. Bannwarth and S. Grimme, J. Chem. Phys., 2017,
     147, 034112. DOI: 10.1063/1.4993215
   * E. Caldeweyher, S. Ehlert, A. Hansen, H. Neugebauer, S. Spicher,
     C. Bannwarth and S. Grimme, J. Chem. Phys., 2019, 150, 154122.
     DOI: 10.1063/1.5090222
   * E. Caldeweyher, J.-M. Mewes, S. Ehlert and S. Grimme, Phys. Chem. Chem. Phys.
     2020, 22, 8499-8512. DOI: 10.1039/D0CP00502A
   
   for sTDA-xTB:
   * S. Grimme and C. Bannwarth, J. Chem. Phys., 2016, 145, 054103.
     DOI: 10.1063/1.4959605
   
   in the mass-spec context:
   * V. Asgeirsson, C. Bauer and S. Grimme, Chem. Sci., 2017, 8, 4879.
     DOI: 10.1039/c7sc00601b
   * J. Koopman and S. Grimme, ACS Omega 2019, 4, 12, 15120-15133.
     DOI: 10.1021/acsomega.9b02011
   
   for metadynamics refer to:
   * S. Grimme, J. Chem. Theory Comput., 2019, 155, 2847-2862
     DOI: 10.1021/acs.jctc.9b00143
   
   for SPH calculations refer to:
   * S. Spicher and S. Grimme, J. Chem. Theory Comput., 2021, 17, 1701-1714
     DOI: 10.1021/acs.jctc.0c01306
   
   for ONIOM refer to:
   * C. Plett, A. Katbashev, S. Ehlert, S. Grimme, M. Bursch,
     Phys. Chem. Chem. Phys., 2023, 25, 17860-17868. DOI: 10.1039/D3CP02178E
   
   for DIPRO refer to:
   * J. Kohn, N. Gildemeister, S. Grimme, D. Fazzi, A. Hansen,
     J. Chem. Phys., 2023, just accepted.
   
   for PTB refer to:
   * S. Grimme, M. Mueller, A. Hansen, J. Chem. Phys., 2023, 158, 124111.
     DOI: 10.1063/5.0137838
   
   with help from (in alphabetical order)
   P. Atkinson, C. Bannwarth, F. Bohle, G. Brandenburg, E. Caldeweyher
   M. Checinski, S. Dohm, S. Ehlert, S. Ehrlich, I. Gerasimov, C. Hölzer
   A. Katbashev, J. Kohn, J. Koopman, C. Lavigne, S. Lehtola, F. März, M. Müller,
   F. Musil, H. Neugebauer, J. Pisarek, C. Plett, P. Pracht, F. Pultar,
   J. Seibert, P. Shushkov, S. Spicher, M. Stahn, M. Steiner, T. Strunk,
   J. Stückrath, T. Rose, and J. Unsleber
   
 * started run on 2026/09/17 at 00:40:22.436     
   ID    Z sym.   atoms
    1    6 C      1-6
    2    8 O      7-12
    3    1 H      13-26

           -------------------------------------------------
          |                Calculation Setup                |
           -------------------------------------------------

          program call               : C:\ORCA_6.1.1\xtb-6.7.1pre\xtb.exe optimized.xyz --gfn 2 --chrg 0 --uhf 0 --hess --json
          coordinate file            : optimized.xyz
          omp threads                :                     4


           -------------------------------------------------
          |                 G F N 2 - x T B                 |
           -------------------------------------------------

        Reference                      10.1021/acs.jctc.8b01176
      * Hamiltonian:
        H0-scaling (s, p, d)           1.850000    2.230000    2.230000
        zeta-weighting                 0.500000
      * Dispersion:
        s8                             2.700000
        a1                             0.520000
        a2                             5.000000
        s9                             5.000000
      * Repulsion:
        kExp                           1.500000    1.000000
        rExp                           1.000000
      * Coulomb:
        alpha                          2.000000
        third order                    shell-resolved
        anisotropic                    true
        a3                             3.000000
        a5                             4.000000
        cn-shift                       1.200000
        cn-exp                         4.000000
        max-rad                        5.000000


          ...................................................
          :                      SETUP                      :
          :.................................................:
          :  # basis functions                  62          :
          :  # atomic orbitals                  62          :
          :  # shells                           38          :
          :  # electrons                        74          :
          :  max. iterations                   250          :
          :  Hamiltonian                  GFN2-xTB          :
          :  restarted?                      false          :
          :  GBSA solvation                  false          :
          :  PC potential                    false          :
          :  electronic temp.          300.0000000     K    :
          :  accuracy                    1.0000000          :
          :  -> integral cutoff          0.2500000E+02      :
          :  -> integral neglect         0.1000000E-07      :
          :  -> SCF convergence          0.1000000E-05 Eh   :
          :  -> wf. convergence          0.1000000E-03 e    :
          :  Broyden damping             0.4000000          :
          :  net charge                          0          :
          :  unpaired electrons                  0          :
          ...................................................

 iter      E             dE          RMSdq      gap      omega  full diag
   1    -44.6608810 -0.446609E+02  0.446E+00   10.74       0.0  T
   2    -44.6902992 -0.294182E-01  0.248E+00   10.59       1.0  T
   3    -44.6918395 -0.154034E-02  0.586E-01   10.57       1.0  T
   4    -44.6920630 -0.223493E-03  0.123E-01   10.58       1.0  T
   5    -44.6920886 -0.256222E-04  0.322E-02   10.61       1.0  T
   6    -44.6920955 -0.690056E-05  0.164E-02   10.60       1.2  T
   7    -44.6920961 -0.618103E-06  0.483E-03   10.60       4.1  T
   8    -44.6920963 -0.157682E-06  0.160E-03   10.60      12.3  T
   9    -44.6920963 -0.689439E-08  0.406E-04   10.60      48.3  T
  10    -44.6920963 -0.803190E-09  0.199E-04   10.60      98.3  T

   *** convergence criteria satisfied after 10 iterations ***

         #    Occupation            Energy/Eh            Energy/eV
      -------------------------------------------------------------
         1        2.0000           -0.7077925             -19.2600
       ...           ...                  ...                  ...
        31        2.0000           -0.4519915             -12.2993
        32        2.0000           -0.4358835             -11.8610
        33        2.0000           -0.4281685             -11.6511
        34        2.0000           -0.4239451             -11.5361
        35        2.0000           -0.4209599             -11.4549
        36        2.0000           -0.4073008             -11.0832
        37        2.0000           -0.4022899             -10.9469 (HOMO)
        38                         -0.0126011              -0.3429 (LUMO)
        39                          0.0161951               0.4407
        40                          0.0228237               0.6211
        41                          0.0523522               1.4246
        42                          0.0608838               1.6567
       ...                                ...                  ...
        62                          0.2905134               7.9053
      -------------------------------------------------------------
                  HL-Gap            0.3896888 Eh           10.6040 eV
             Fermi-level           -0.2074455 Eh           -5.6449 eV

 SCC (total)                   0 d,  0 h,  0 min,  0.009 sec
 SCC setup                      ...        0 min,  0.000 sec (  0.000%)
 Dispersion                     ...        0 min,  0.000 sec (  0.000%)
 classical contributions        ...        0 min,  0.000 sec (  0.000%)
 integral evaluation            ...        0 min,  0.001 sec ( 11.111%)
 iterations                     ...        0 min,  0.006 sec ( 66.668%)
 molecular gradient             ...        0 min,  0.002 sec ( 22.221%)
 printout                       ...        0 min,  0.000 sec (  0.000%)

         :::::::::::::::::::::::::::::::::::::::::::::::::::::
         ::                     SUMMARY                     ::
         :::::::::::::::::::::::::::::::::::::::::::::::::::::
         :: total energy             -44.363046758566 Eh    ::
         :: gradient norm              0.000167423638 Eh/a0 ::
         :: HOMO-LUMO gap             10.603971293544 eV    ::
         ::.................................................::
         :: SCC energy               -44.692074058637 Eh    ::
         :: -> isotropic ES            0.141697024411 Eh    ::
         :: -> anisotropic ES         -0.003138483405 Eh    ::
         :: -> anisotropic XC         -0.007612206607 Eh    ::
         :: -> dispersion             -0.018831797010 Eh    ::
         :: repulsion energy           0.329027300071 Eh    ::
         :: add. restraining           0.000000000000 Eh    ::
         :: total charge              -0.000000000000 e     ::
         :::::::::::::::::::::::::::::::::::::::::::::::::::::

           ------------------------------------------------- 
          |                Numerical Hessian                |
           ------------------------------------------------- 
step length          :   0.00500
SCC accuracy         :   0.30000
Hessian scale factor :   1.00000
frozen atoms in %    :   0.00000    0
RMS gradient         :   0.00017
estimated CPU  time      0.11 min
estimated wall time      0.03 min

writing file <hessian>.

 projected vibrational frequencies (cm⁻¹)
eigval :       -0.00    -0.00    -0.00     0.00     0.00     0.00
eigval :       47.64    51.18    67.94    88.39    98.66   119.68
eigval :      173.83   227.52   243.82   263.53   278.15   292.06
eigval :      293.54   317.13   340.98   386.70   394.73   431.28
eigval :      455.13   462.01   502.87   555.79   572.55   675.62
eigval :      751.95   870.48   907.90   929.30   980.16  1006.73
eigval :     1036.19  1047.90  1079.52  1088.14  1094.77  1113.04
eigval :     1118.26  1138.74  1145.96  1173.60  1193.14  1204.40
eigval :     1218.27  1225.02  1249.22  1265.74  1274.32  1293.99
eigval :     1301.54  1309.22  1318.96  1328.52  1341.02  1346.16
eigval :     1363.77  1375.29  1463.89  1471.96  2834.31  2866.91
eigval :     2883.31  2917.89  2935.87  2950.93  2975.24  2991.11
eigval :     3417.91  3429.17  3461.80  3496.91  3539.13  3581.45
           -------------------------------------------------
          |                Property Printout                |
           -------------------------------------------------

    * Orbital Energies and Occupations

         #    Occupation            Energy/Eh            Energy/eV
      -------------------------------------------------------------
         1        2.0000           -0.7077921             -19.2600
       ...           ...                  ...                  ...
        25        2.0000           -0.5011340             -13.6366
        26        2.0000           -0.4966584             -13.5148
        27        2.0000           -0.4904227             -13.3451
        28        2.0000           -0.4810664             -13.0905
        29        2.0000           -0.4732320             -12.8773
        30        2.0000           -0.4618228             -12.5668
        31        2.0000           -0.4519921             -12.2993
        32        2.0000           -0.4358843             -11.8610
        33        2.0000           -0.4281689             -11.6511
        34        2.0000           -0.4239462             -11.5362
        35        2.0000           -0.4209605             -11.4549
        36        2.0000           -0.4073017             -11.0832
        37        2.0000           -0.4022906             -10.9469 (HOMO)
        38                         -0.0126006              -0.3429 (LUMO)
        39                          0.0161954               0.4407
        40                          0.0228240               0.6211
        41                          0.0523527               1.4246
        42                          0.0608845               1.6568
        43                          0.0728787               1.9831
        44                          0.0912460               2.4829
        45                          0.0946841               2.5765
        46                          0.1067473               2.9047
        47                          0.1178834               3.2078
        48                          0.1202881               3.2732
       ...                                ...                  ...
        62                          0.2905133               7.9053
      -------------------------------------------------------------
                  HL-Gap            0.3896900 Eh           10.6040 eV
             Fermi-level           -0.2074456 Eh           -5.6449 eV

     #   Z          covCN         q      C6AA      α(0)
     1   6 C        3.675     0.062    19.759     6.369
     2   6 C        3.726     0.099    19.039     6.230
     3   6 C        3.727     0.099    19.043     6.230
     4   6 C        3.728     0.088    19.213     6.258
     5   6 C        3.724     0.098    19.059     6.234
     6   6 C        3.675     0.069    19.642     6.351
     7   8 O        1.656    -0.448    21.798     6.303
     8   8 O        1.655    -0.455    21.952     6.325
     9   8 O        1.656    -0.442    21.687     6.287
    10   8 O        1.655    -0.463    22.110     6.348
    11   8 O        1.656    -0.457    21.979     6.329
    12   8 O        1.655    -0.441    21.666     6.283
    13   1 H        0.924     0.044     2.399     2.422
    14   1 H        0.924     0.059     2.206     2.323
    15   1 H        0.923     0.034     2.536     2.490
    16   1 H        0.923     0.027     2.623     2.533
    17   1 H        0.924     0.058     2.217     2.328
    18   1 H        0.923     0.027     2.630     2.536
    19   1 H        0.924     0.049     2.338     2.391
    20   1 H        0.924     0.027     2.625     2.534
    21   1 H        0.805     0.295     0.738     1.349
    22   1 H        0.805     0.318     0.669     1.285
    23   1 H        0.804     0.316     0.676     1.291
    24   1 H        0.804     0.330     0.639     1.255
    25   1 H        0.805     0.315     0.677     1.293
    26   1 H        0.805     0.292     0.747     1.357

 Mol. C6AA /au·bohr⁶  :       5141.292697
 Mol. C8AA /au·bohr⁸  :     107458.345643
 Mol. α(0) /au        :        102.934220


Wiberg/Mayer (AO) data.
largest (>0.10) Wiberg bond orders for each atom

 ---------------------------------------------------------------------------
     #   Z sym  total        # sym  WBO       # sym  WBO       # sym  WBO
 ---------------------------------------------------------------------------
     1   6 C    3.952 --    12 O    0.999     2 C    0.978    14 H    0.970
                            13 H    0.969
     2   6 C    3.960 --    11 O    0.998     1 C    0.978     3 C    0.973
                            15 H    0.955
     3   6 C    3.961 --    10 O    1.001     2 C    0.973     4 C    0.961
                            16 H    0.958
     4   6 C    3.964 --     9 O    1.012     5 C    0.963     3 C    0.961
                            17 H    0.959
     5   6 C    3.959 --     8 O    0.990     6 C    0.986     4 C    0.963
                            18 H    0.959
     6   6 C    3.953 --     7 O    0.991     5 C    0.986    20 H    0.972
                            19 H    0.968
     7   8 O    1.953 --     6 C    0.991    21 H    0.899
     8   8 O    1.963 --     5 C    0.990    22 H    0.872
     9   8 O    1.969 --     4 C    1.012    23 H    0.871
    10   8 O    1.959 --     3 C    1.001    24 H    0.854
    11   8 O    1.947 --     2 C    0.998    25 H    0.875
    12   8 O    1.971 --     1 C    0.999    26 H    0.901
    13   1 H    0.998 --     1 C    0.969
    14   1 H    0.996 --     1 C    0.970
    15   1 H    0.999 --     2 C    0.955
    16   1 H    0.999 --     3 C    0.958
    17   1 H    0.997 --     4 C    0.959
    18   1 H    0.999 --     5 C    0.959
    19   1 H    0.998 --     6 C    0.968
    20   1 H    0.999 --     6 C    0.972
    21   1 H    0.913 --     7 O    0.899
    22   1 H    0.899 --     8 O    0.872
    23   1 H    0.900 --     9 O    0.871
    24   1 H    0.891 --    10 O    0.854
    25   1 H    0.901 --    11 O    0.875
    26   1 H    0.915 --    12 O    0.901
 ---------------------------------------------------------------------------

Topologies differ in total number of bonds
Writing topology from bond orders to xtbtopo.mol

molecular dipole:
                 x           y           z       tot (Debye)
 q only:        0.553       0.211      -0.275
   full:        0.867       0.301      -0.353       2.500
molecular quadrupole (traceless):
                xx          xy          yy          xz          yz          zz
 q only:        6.700      -1.702      -3.833      -0.638       0.155      -2.867
  q+dip:        9.684      -2.163      -3.384       0.081      -0.726      -6.301
   full:       10.196      -2.573      -4.613      -0.420      -0.180      -5.583

           -------------------------------------------------
          |               Frequency Printout                |
           -------------------------------------------------
 projected vibrational frequencies (cm⁻¹)
eigval :       -0.00    -0.00    -0.00     0.00     0.00     0.00
eigval :       47.64    51.18    67.94    88.39    98.66   119.68
eigval :      173.83   227.52   243.82   263.53   278.15   292.06
eigval :      293.54   317.13   340.98   386.70   394.73   431.28
eigval :      455.13   462.01   502.87   555.79   572.55   675.62
eigval :      751.95   870.48   907.90   929.30   980.16  1006.73
eigval :     1036.19  1047.90  1079.52  1088.14  1094.77  1113.04
eigval :     1118.26  1138.74  1145.96  1173.60  1193.14  1204.40
eigval :     1218.27  1225.02  1249.22  1265.74  1274.32  1293.99
eigval :     1301.54  1309.22  1318.96  1328.52  1341.02  1346.16
eigval :     1363.77  1375.29  1463.89  1471.96  2834.31  2866.91
eigval :     2883.31  2917.89  2935.87  2950.93  2975.24  2991.11
eigval :     3417.91  3429.17  3461.80  3496.91  3539.13  3581.45
 reduced masses (amu)
   1: 13.08   2: 13.32   3: 13.03   4: 13.51   5: 13.26   6: 13.81   7: 13.88   8: 12.60
   9: 12.93  10: 10.57  11: 12.92  12: 11.70  13: 13.60  14: 12.90  15: 11.90  16: 13.43
  17:  6.53  18:  9.12  19: 11.75  20: 12.43  21:  4.61  22:  3.82  23:  4.33  24:  3.78
  25:  8.50  26: 11.27  27:  9.17  28:  3.04  29: 10.07  30: 10.95  31: 10.73  32: 10.42
  33:  7.93  34:  9.49  35:  6.93  36:  8.12  37:  8.93  38:  7.76  39: 10.46  40: 10.81
  41: 10.50  42:  8.69  43: 10.16  44:  8.09  45:  7.21  46:  3.21  47:  4.06  48:  4.18
  49:  3.07  50:  2.55  51:  3.69  52:  2.55  53:  3.64  54:  4.06  55:  4.03  56:  4.18
  57:  4.25  58:  3.64  59:  3.98  60:  3.58  61:  5.04  62:  6.06  63:  1.81  64:  1.82
  65:  1.71  66:  1.72  67:  1.74  68:  1.99  69:  1.45  70:  1.76  71:  1.75  72:  1.70
  73:  1.87  74:  1.87  75:  1.88  76:  1.87  77:  1.87  78:  1.88
 IR intensities (km·mol⁻¹)
   1:  0.06   2:  0.15   3:  0.04   4:  0.19   5:  0.02   6:  0.05   7:  3.70   8:  2.80
   9:  1.07  10:  2.08  11:  2.96  12:  3.39  13:  9.91  14:  6.84  15:  8.75  16:  9.58
  17: 67.81  18: 48.55  19: 22.05  20: 15.11  21: 97.86  22:139.32  23:109.45  24: 99.78
  25: 54.83  26: 69.02  27: 15.25  28:287.32  29: 32.50  30: 44.71  31: 20.22  32: 27.49
  33: 10.57  34: 12.45  35: 17.54  36: 39.32  37:  6.94  38:  7.24  39: 34.16  40:  9.79
  41: 98.76  42:135.00  43: 49.40  44: 58.47  45:112.92  46: 33.26  47:134.77  48: 34.30
  49: 41.68  50: 12.31  51: 80.17  52: 19.81  53: 55.53  54:  3.94  55: 33.50  56: 27.42
  57: 77.16  58: 19.18  59: 58.62  60: 94.94  61: 17.52  62:  2.50  63:  1.50  64:  1.11
  65: 43.59  66: 29.22  67: 91.40  68: 55.96  69: 37.67  70: 33.90  71: 23.86  72: 26.16
  73:116.68  74: 86.72  75: 48.84  76: 43.09  77:  9.17  78: 14.48
 Raman intensities (Ä⁴*amu⁻¹)
   1:  0.00   2:  0.00   3:  0.00   4:  0.00   5:  0.00   6:  0.00   7:  0.00   8:  0.00
   9:  0.00  10:  0.00  11:  0.00  12:  0.00  13:  0.00  14:  0.00  15:  0.00  16:  0.00
  17:  0.00  18:  0.00  19:  0.00  20:  0.00  21:  0.00  22:  0.00  23:  0.00  24:  0.00
  25:  0.00  26:  0.00  27:  0.00  28:  0.00  29:  0.00  30:  0.00  31:  0.00  32:  0.00
  33:  0.00  34:  0.00  35:  0.00  36:  0.00  37:  0.00  38:  0.00  39:  0.00  40:  0.00
  41:  0.00  42:  0.00  43:  0.00  44:  0.00  45:  0.00  46:  0.00  47:  0.00  48:  0.00
  49:  0.00  50:  0.00  51:  0.00  52:  0.00  53:  0.00  54:  0.00  55:  0.00  56:  0.00
  57:  0.00  58:  0.00  59:  0.00  60:  0.00  61:  0.00  62:  0.00  63:  0.00  64:  0.00
  65:  0.00  66:  0.00  67:  0.00  68:  0.00  69:  0.00  70:  0.00  71:  0.00  72:  0.00
  73:  0.00  74:  0.00  75:  0.00  76:  0.00  77:  0.00  78:  0.00
 output can be read by thermo (or use thermo option).
 writing <g98.out> molden fake output.
 recommended (thermochemical) frequency scaling factor: 1.0
           -------------------------------------------------
          |             Thermodynamic Functions             |
           -------------------------------------------------

Molecule has no symmetry elements
It seems to be the C1 point group
c1  symmetry found (for desy threshold:  0.10E+00) used in thermo

          ...................................................
          :                      SETUP                      :
          :.................................................:
          :  # frequencies                          72      :
          :  # imaginary freq.                       0      :
          :  linear?                             false      :
          :  only rotor calc.                    false      :
          :  symmetry                               c1      :
          :  rotational number                       1      :
          :  scaling factor                  1.0000000      :
          :  rotor cutoff                   50.0000000 cm⁻¹ :
          :  imag. cutoff                  -20.0000000 cm⁻¹ :
          :.................................................:

    mode    ω/cm⁻¹     T·S(HO)/kcal·mol⁻¹    T·S(FR)/kcal·mol⁻¹   T·S(vib)
   ------------------------------------------------------------------------
       1     47.64    -1.46487 ( 45.17%)    -1.07079 ( 54.83%)    -1.24880
       2     51.18    -1.42252 ( 52.34%)    -1.04952 ( 47.66%)    -1.24473
       3     67.94    -1.25587 ( 77.32%)    -0.96565 ( 22.68%)    -1.19004
       4     88.39    -1.10177 ( 90.71%)    -0.88771 (  9.29%)    -1.08189
       5     98.66    -1.03775 ( 93.81%)    -0.85515 (  6.19%)    -1.02645
       6    119.68    -0.92594 ( 97.04%)    -0.79796 (  2.96%)    -0.92215
       7    173.83    -0.71367 ( 99.32%)    -0.68739 (  0.68%)    -0.71349
       8    227.52    -0.56602 ( 99.77%)    -0.60766 (  0.23%)    -0.56611
       9    243.82    -0.52916 ( 99.82%)    -0.58716 (  0.18%)    -0.52926
      10    263.53    -0.48844 ( 99.87%)    -0.56413 (  0.13%)    -0.48854
      11    278.15    -0.46064 ( 99.90%)    -0.54813 (  0.10%)    -0.46073
      12    292.06    -0.43589 ( 99.91%)    -0.53368 (  0.09%)    -0.43598
      13    293.54    -0.43335 ( 99.92%)    -0.53219 (  0.08%)    -0.43344
   ------------------------------------------------------------------------

   temp. (K)  partition function   enthalpy   heat capacity  entropy
                                   cal/mol     cal/K/mol   cal/K/mol   J/K/mol
 298.15  VIB  0.847E+05             7369.680     45.714     45.611
         ROT  0.147E+07              888.752      2.981     31.198
         INT  0.124E+12             8258.432     48.695     76.809
         TR   0.238E+28             1481.254      4.968     41.487
         TOT                        9739.6864    53.6629   118.2956   494.9489

       T/K    H(0)-H(T)+PV         H(T)/Eh          T*S/Eh         G(T)/Eh
   ------------------------------------------------------------------------
    298.15    0.155212E-01    0.224315E+00    0.562061E-01    0.168109E+00
   ------------------------------------------------------------------------

         :::::::::::::::::::::::::::::::::::::::::::::::::::::
         ::                  THERMODYNAMIC                  ::
         :::::::::::::::::::::::::::::::::::::::::::::::::::::
         :: total free energy         -44.194938137170 Eh   ::
         ::.................................................::
         :: total energy              -44.363046758795 Eh   ::
         :: zero point energy           0.208793513946 Eh   ::
         :: G(RRHO) w/o ZPVE           -0.040684892321 Eh   ::
         :: G(RRHO) contrib.            0.168108621625 Eh   ::
         :::::::::::::::::::::::::::::::::::::::::::::::::::::

           -------------------------------------------------
          | TOTAL ENERGY              -44.363046758795 Eh   |
          | TOTAL ENTHALPY            -44.138732066618 Eh   |
          | TOTAL FREE ENERGY         -44.194938137170 Eh   |
          | GRADIENT NORM               0.000166154496 Eh/α |
          | HOMO-LUMO GAP              10.604005823024 eV   |
           -------------------------------------------------

------------------------------------------------------------------------
 * finished run on 2026/09/17 at 00:40:23.086     
------------------------------------------------------------------------
 total:
 * wall-time:     0 d,  0 h,  0 min,  0.646 sec
 *  cpu-time:     0 d,  0 h,  0 min,  2.453 sec
 * ratio c/w:     3.797 speedup
 SCF:
 * wall-time:     0 d,  0 h,  0 min,  0.009 sec
 *  cpu-time:     0 d,  0 h,  0 min,  0.000 sec
 * ratio c/w:     0.000 speedup
 analytical hessian:
 * wall-time:     0 d,  0 h,  0 min,  0.569 sec
 *  cpu-time:     0 d,  0 h,  0 min,  2.234 sec
 * ratio c/w:     3.927 speedup

