26
Coordinates from ORCA-job optfreq E -315.595027067127
  C           4.16159218703190     -0.36144264348705      0.03552493437118
  C           2.85680983513210      0.29577741198357     -0.40882282068271
  C           1.61971161262907     -0.41854698307660      0.13397078233623
  C           0.30662262434789      0.22681127865275     -0.30719586067376
  C          -0.92199987845014     -0.48470761256254      0.25870291742992
  C          -2.26865188281331      0.02021851869462     -0.27586810091328
  C          -2.50519174878829      1.49494245791007      0.05747881344738
  C          -3.41116936559095     -0.83819412074229      0.27167987837858
  H           4.24639760627064     -0.36650586892352      1.12813015686628
  H           5.03453056309282      0.16409864507198     -0.36483424669795
  H           4.21284840883403     -1.40202977282422     -0.30432552188355
  H           2.84121510561689      1.34457715696659     -0.08181440036149
  H           2.80852339733144      0.31766277931864     -1.50632208588499
  H           1.63689581706660     -1.46973062078295     -0.18934748710066
  H           1.66510178830063     -0.43814529828048      1.23293698591002
  H           0.30786073379119      1.28062231456638      0.00166930618091
  H           0.25254415353684      0.22800036593592     -1.40618677137339
  H          -0.92073091288762     -0.39813652758640      1.35641661578516
  H          -0.83956984566868     -1.55917933607976      0.03868961614653
  H          -2.25556335101650     -0.08624242047061     -1.37202948754707
  H          -3.49126353695646      1.82172066298055     -0.29010320373498
  H          -1.75876714898297      2.14742078702886     -0.40545456774265
  H          -2.46422707374309      1.65285386556711      1.14283091434846
  H          -4.37819432095911     -0.51892365592758     -0.13182353294829
  H          -3.46312122993151     -0.75725207634410      1.36465339290924
  H          -3.27220253719345     -1.89566930758903      0.02144377343492
