26
Coordinates from ORCA-job optfreq E -315.593777121900
  C       4.136769     -0.363205      0.043840
  C       2.841087      0.281785     -0.432487
  C       1.612268     -0.418650      0.142385
  C       0.309129      0.220868     -0.331890
  C      -0.911023     -0.467347      0.276470
  C      -2.248937      0.038067     -0.274415
  C      -2.508457      1.492953      0.109001
  C      -3.386632     -0.843558      0.238680
  H       4.206382     -0.322517      1.128802
  H       4.998654      0.151345     -0.374823
  H       4.178187     -1.406567     -0.261612
  H       2.828866      1.333015     -0.135004
  H       2.798234      0.247259     -1.523660
  H       1.627622     -1.470856     -0.152290
  H       1.655325     -0.381744      1.233685
  H       0.315231      1.277391     -0.058822
  H       0.253164      0.159044     -1.421587
  H      -0.897613     -0.333639      1.360892
  H      -0.838026     -1.539758      0.077452
  H      -2.221308     -0.034035     -1.367962
  H      -3.488758      1.806464     -0.243614
  H      -1.765567      2.153329     -0.329939
  H      -2.480565      1.609904      1.190509
  H      -4.340257     -0.513634     -0.167363
  H      -3.441618     -0.795211      1.324328
  H      -3.232156     -1.880703     -0.050578
26
Coordinates from ORCA-job optfreq E -315.594878792141
  C       4.165192     -0.361374      0.041341
  C       2.859228      0.283103     -0.428310
  C       1.621723     -0.416487      0.139600
  C       0.308349      0.220522     -0.323683
  C      -0.921278     -0.474639      0.268926
  C      -2.266501      0.032855     -0.271963
  C      -2.516169      1.498801      0.096546
  C      -3.411070     -0.845318      0.246435
  H       4.243428     -0.325850      1.133089
  H       5.034104      0.154785     -0.378887
  H       4.211415     -1.411317     -0.266457
  H       2.844631      1.339240     -0.129192
  H       2.813955      0.261320     -1.525005
  H       1.637081     -1.473619     -0.159387
  H       1.667502     -0.394752      1.237299
  H       0.311777      1.280588     -0.040697
  H       0.253880      0.179574     -1.420394
  H      -0.911506     -0.357545      1.362178
  H      -0.845972     -1.551591      0.063287
  H      -2.242467     -0.047997     -1.369204
  H      -3.499359      1.823054     -0.260001
  H      -1.764998      2.159824     -0.345546
  H      -2.490290      1.627005      1.185049
  H      -4.373317     -0.515239     -0.159008
  H      -3.466643     -0.792051      1.339931
  H      -3.262693     -1.892893     -0.035945
26
Coordinates from ORCA-job optfreq E -315.594984941594
  C       4.166315     -0.359685      0.040173
  C       2.859407      0.286673     -0.422669
  C       1.621560     -0.416119      0.137771
  C       0.307320      0.221507     -0.318011
  C      -0.922792     -0.480252      0.262722
  C      -2.268957      0.028152     -0.272729
  C      -2.511280      1.498233      0.083878
  C      -3.413672     -0.842936      0.255031
  H       4.248273     -0.333877      1.132902
  H       5.037132      0.157950     -0.375679
  H       4.215336     -1.408651     -0.273985
  H       2.843435      1.342202     -0.118108
  H       2.813018      0.277848     -1.520397
  H       1.637591     -1.472909     -0.166728
  H       1.667732     -0.407809      1.236777
  H       0.308654      1.280360     -0.026531
  H       0.254043      0.196793     -1.416545
  H      -0.915845     -0.377207      1.358894
  H      -0.845120     -1.556711      0.050698
  H      -2.249707     -0.061195     -1.370326
  H      -3.494119      1.827497     -0.271579
  H      -1.758813      2.156309     -0.361993
  H      -2.483162      1.635619      1.172523
  H      -4.378621     -0.514499     -0.147132
  H      -3.466705     -0.782829      1.349551
  H      -3.271022     -1.894464     -0.018508
26
Coordinates from ORCA-job optfreq E -315.595021605704
  C       4.163754     -0.359683      0.038356
  C       2.857896      0.291041     -0.415603
  C       1.620475     -0.416603      0.135802
  C       0.306885      0.224073     -0.311847
  C      -0.922619     -0.483877      0.258020
  C      -2.269282      0.023628     -0.274406
  C      -2.507103      1.496432      0.069293
  C      -3.412521     -0.840004      0.264540
  H       4.248346     -0.348058      1.131188
  H       5.036161      0.160601     -0.370458
  H       4.214617     -1.405373     -0.286466
  H       2.841619      1.344092     -0.101841
  H       2.810482      0.298011     -1.513506
  H       1.636949     -1.471342     -0.176788
  H       1.666566     -0.423617      1.235108
  H       0.307267      1.280402     -0.010844
  H       0.254082      0.215810     -1.411079
  H      -0.918817     -0.393651      1.355785
  H      -0.842177     -1.559127      0.040270
  H      -2.254722     -0.075159     -1.371530
  H      -3.490787      1.826755     -0.282626
  H      -1.756778      2.151787     -0.383626
  H      -2.473521      1.644570      1.156601
  H      -4.379485     -0.515345     -0.135495
  H      -3.463372     -0.770467      1.358736
  H      -3.273912     -1.894895      0.002415
26
Coordinates from ORCA-job optfreq E -315.595025258216
  C       4.162385     -0.360449      0.037176
  C       2.857229      0.293168     -0.412463
  C       1.620007     -0.417389      0.134967
  C       0.306805      0.225458     -0.309628
  C      -0.922225     -0.484315      0.257891
  C      -2.268898      0.022034     -0.275204
  C      -2.506090      1.495616      0.063629
  C      -3.411577     -0.839058      0.268034
  H       4.247195     -0.356368      1.129879
  H       5.035144      0.161990     -0.367769
  H       4.213498     -1.403875     -0.294230
  H       2.841268      1.344373     -0.092959
  H       2.809439      0.307048     -1.510185
  H       1.636747     -1.470571     -0.182269
  H       1.665789     -0.430390      1.234108
  H       0.307476      1.280572     -0.004911
  H       0.253562      0.222101     -1.408753
  H      -0.919638     -0.396604      1.355687
  H      -0.840814     -1.559110      0.038791
  H      -2.255312     -0.080374     -1.371876
  H      -3.490828      1.824444     -0.286132
  H      -1.757668      2.149799     -0.393768
  H      -2.469046      1.648327      1.150001
  H      -4.378730     -0.516843     -0.133047
  H      -3.462613     -0.764444      1.361657
  H      -3.273103     -1.895141      0.011375
26
Coordinates from ORCA-job optfreq E -315.595027067127
  C       4.161592     -0.361443      0.035525
  C       2.856810      0.295777     -0.408823
  C       1.619712     -0.418547      0.133971
  C       0.306623      0.226811     -0.307196
  C      -0.922000     -0.484708      0.258703
  C      -2.268652      0.020219     -0.275868
  C      -2.505192      1.494942      0.057479
  C      -3.411169     -0.838194      0.271680
  H       4.246398     -0.366506      1.128130
  H       5.034531      0.164099     -0.364834
  H       4.212848     -1.402030     -0.304326
  H       2.841215      1.344577     -0.081814
  H       2.808523      0.317663     -1.506322
  H       1.636896     -1.469731     -0.189347
  H       1.665102     -0.438145      1.232937
  H       0.307861      1.280622      0.001669
  H       0.252544      0.228000     -1.406187
  H      -0.920731     -0.398137      1.356417
  H      -0.839570     -1.559179      0.038690
  H      -2.255563     -0.086242     -1.372029
  H      -3.491264      1.821721     -0.290103
  H      -1.758767      2.147421     -0.405455
  H      -2.464227      1.652854      1.142831
  H      -4.378194     -0.518924     -0.131824
  H      -3.463121     -0.757252      1.364653
  H      -3.272203     -1.895669      0.021444
