26
 energy: -26.323896944825 gnorm: 0.000163372840 xtb: 6.7.1pre (5071a88)
C            4.13676909945290       -0.36320468107727        0.04384038491810
C            2.84108691803766        0.28178483851547       -0.43248739836631
C            1.61226848083214       -0.41864983841853        0.14238498316698
C            0.30912896353671        0.22086822640030       -0.33189042892658
C           -0.91102345738357       -0.46734729509114        0.27647033636563
C           -2.24893659147583        0.03806728149067       -0.27441476674154
C           -2.50845747831666        1.49295348123913        0.10900130120101
C           -3.38663241750789       -0.84355812760056        0.23867962525255
H            4.20638192031074       -0.32251693475742        1.12880196195858
H            4.99865433272292        0.15134494336607       -0.37482303676163
H            4.17818720011964       -1.40656710098144       -0.26161231940200
H            2.82886605700230        1.33301528472651       -0.13500378466683
H            2.79823379314971        0.24725856409862       -1.52366024531653
H            1.62762207935859       -1.47085638546832       -0.15229040438693
H            1.65532541774529       -0.38174409339651        1.23368482479626
H            0.31523123524235        1.27739142419499       -0.05882185627190
H            0.25316372484006        0.15904409586477       -1.42158659320305
H           -0.89761267897290       -0.33363875442901        1.36089247386180
H           -0.83802620005469       -1.53975781360046        0.07745203309527
H           -2.22130776342556       -0.03403531983735       -1.36796195871380
H           -3.48875809788860        1.80646367266613       -0.24361361524391
H           -1.76556660392490        2.15332865749598       -0.32993898050582
H           -2.48056534407548        1.60990396164441        1.19050942739582
H           -4.34025727735068       -0.51363390025713       -0.16736285303361
H           -3.44161783616856       -0.79521086841583        1.32432842043351
H           -3.23215647580571       -1.88070331837218       -0.05057753090506
