24
Coordinates from ORCA-job optfreq E -687.092355201444
  C       2.568828     -0.495126      0.128005
  C       1.137948     -0.193230     -0.327325
  C       0.596725      1.079742      0.333650
  C      -0.877939      1.269788     -0.043093
  C      -1.663936      0.004976      0.302344
  C      -0.995902     -1.201222     -0.373918
  O       0.346401     -1.321412      0.013130
  O      -1.676591     -2.344143      0.020276
  O      -2.987921      0.172243     -0.136491
  O      -1.363839      2.391770      0.651200
  O       1.368714      2.168144     -0.091468
  O       3.105017     -1.605787     -0.534408
  H       2.562407     -0.652812      1.215231
  H       3.201264      0.359925     -0.111852
  H       1.126204     -0.053958     -1.419475
  H       0.656466      0.969884      1.428964
  H      -0.954170      1.440640     -1.129990
  H      -1.633661     -0.159708      1.390869
  H      -1.053576     -1.069882     -1.476994
  H      -1.101340     -3.105240     -0.120646
  H      -3.436129     -0.677496     -0.048178
  H      -2.323521      2.396878      0.551015
  H       0.902483      2.968508      0.183695
  H       2.496065     -2.342480     -0.404540
24
Coordinates from ORCA-job optfreq E -687.094591732536
  C       2.568317     -0.487324      0.124965
  C       1.145676     -0.183827     -0.328210
  C       0.590438      1.077419      0.338065
  C      -0.877668      1.252889     -0.044862
  C      -1.655397     -0.006771      0.309584
  C      -0.994863     -1.201803     -0.378583
  O       0.353605     -1.320025      0.021399
  O      -1.688425     -2.349725      0.010112
  O      -2.993617      0.173642     -0.117852
  O      -1.367528      2.394013      0.640018
  O       1.368541      2.177588     -0.087165
  O       3.108033     -1.618260     -0.530706
  H       2.561545     -0.622643      1.220108
  H       3.202375      0.367790     -0.123076
  H       1.136547     -0.042827     -1.424275
  H       0.644099      0.957271      1.436553
  H      -0.942461      1.407190     -1.138319
  H      -1.604499     -0.174480      1.400247
  H      -1.046448     -1.058213     -1.480765
  H      -1.134391     -3.117740     -0.174333
  H      -3.457325     -0.664603      0.000438
  H      -2.325170      2.417279      0.520337
  H       0.905183      2.978179      0.189785
  H       2.503429     -2.355017     -0.383464
24
Coordinates from ORCA-job optfreq E -687.095469331288
  C       2.569303     -0.480233      0.122590
  C       1.151551     -0.178270     -0.324511
  C       0.585826      1.076432      0.340704
  C      -0.878142      1.240184     -0.041628
  C      -1.650674     -0.016416      0.313895
  C      -0.991858     -1.202893     -0.378367
  O       0.357405     -1.318090      0.044194
  O      -1.690790     -2.354901      0.006174
  O      -2.994247      0.176235     -0.116536
  O      -1.368577      2.388721      0.645361
  O       1.364129      2.182555     -0.095332
  O       3.106032     -1.624881     -0.528841
  H       2.572293     -0.598216      1.220461
  H       3.206176      0.370122     -0.136547
  H       1.137009     -0.046223     -1.422135
  H       0.644349      0.957448      1.439206
  H      -0.938136      1.393947     -1.135906
  H      -1.597835     -0.187076      1.403892
  H      -1.028554     -1.059123     -1.479024
  H      -1.166351     -3.125353     -0.244436
  H      -3.472485     -0.647575      0.038626
  H      -2.322164      2.429382      0.501140
  H       0.901204      2.982752      0.183157
  H       2.504533     -2.358525     -0.356136
24
Coordinates from ORCA-job optfreq E -687.095935486594
  C       2.573752     -0.474601      0.118568
  C       1.155669     -0.175515     -0.319172
  C       0.585316      1.077867      0.342526
  C      -0.878332      1.234163     -0.035924
  C      -1.650096     -0.022904      0.314775
  C      -0.986902     -1.206983     -0.372546
  O       0.361102     -1.315554      0.070174
  O      -1.686064     -2.360260      0.011616
  O      -2.992556      0.176065     -0.128347
  O      -1.370328      2.381285      0.658142
  O       1.359096      2.187445     -0.104580
  O       3.101537     -1.629069     -0.529198
  H       2.591631     -0.580700      1.217057
  H       3.213537      0.369452     -0.154069
  H       1.130239     -0.056365     -1.417335
  H       0.652507      0.964772      1.440319
  H      -0.938684      1.395204     -1.128642
  H      -1.607940     -0.194981      1.404005
  H      -1.008023     -1.071051     -1.472971
  H      -1.201023     -3.128781     -0.313566
  H      -3.483176     -0.632846      0.062325
  H      -2.319056      2.436011      0.488227
  H       0.894847      2.985778      0.177656
  H       2.502944     -2.358431     -0.329040
24
Coordinates from ORCA-job optfreq E -687.096296152966
  C       2.580879     -0.468462      0.112082
  C       1.158816     -0.173685     -0.313346
  C       0.587596      1.080414      0.344724
  C      -0.877568      1.231426     -0.029427
  C      -1.650871     -0.028065      0.313445
  C      -0.979540     -1.214725     -0.361495
  O       0.367180     -1.312256      0.096296
  O      -1.674949     -2.366418      0.028012
  O      -2.987724      0.172388     -0.149040
  O      -1.373262      2.372370      0.672538
  O       1.353956      2.193074     -0.109974
  O       3.096208     -1.631031     -0.531211
  H       2.615949     -0.565275      1.210212
  H       3.222322      0.368958     -0.176257
  H       1.119235     -0.068280     -1.411531
  H       0.663295      0.973506      1.441637
  H      -0.940657      1.401204     -1.119977
  H      -1.626304     -0.199409      1.402299
  H      -0.987022     -1.092076     -1.462696
  H      -1.249990     -3.128255     -0.384880
  H      -3.491373     -0.618626      0.078460
  H      -2.315532      2.440885      0.473887
  H       0.887729      2.988056      0.179030
  H       2.501626     -2.355718     -0.302788
24
Coordinates from ORCA-job optfreq E -687.096473702713
  C       2.586105     -0.464429      0.107582
  C       1.159685     -0.173154     -0.310658
  C       0.590528      1.082221      0.346099
  C      -0.876300      1.232003     -0.026400
  C      -1.651204     -0.029821      0.311651
  C      -0.974179     -1.221658     -0.352174
  O       0.372970     -1.310353      0.105945
  O      -1.663950     -2.370631      0.045919
  O      -2.982509      0.167056     -0.163675
  O      -1.375225      2.367863      0.678213
  O       1.352045      2.196128     -0.108159
  O       3.094713     -1.629627     -0.532072
  H       2.628690     -0.558002      1.205327
  H       3.226537      0.370542     -0.189263
  H       1.112859     -0.072875     -1.408793
  H       0.668444      0.976869      1.442753
  H      -0.941935      1.404446     -1.116143
  H      -1.637780     -0.198579      1.400885
  H      -0.979352     -1.108579     -1.454480
  H      -1.290497     -3.126482     -0.423252
  H      -3.493857     -0.612954      0.083045
  H      -2.313391      2.443905      0.463928
  H       0.885093      2.988818      0.186031
  H       2.502508     -2.352705     -0.292308
24
Coordinates from ORCA-job optfreq E -687.096549637430
  C       2.588330     -0.462467      0.106789
  C       1.159348     -0.173463     -0.310484
  C       0.592324      1.082886      0.346294
  C      -0.875359      1.233220     -0.026479
  C      -1.650453     -0.029773      0.311156
  C      -0.971606     -1.225573     -0.347158
  O       0.377009     -1.310040      0.103195
  O      -1.656690     -2.372452      0.058857
  O      -2.978946      0.162250     -0.168010
  O      -1.375445      2.367475      0.676657
  O       1.352589      2.196406     -0.104387
  O       3.097038     -1.626786     -0.530413
  H       2.629428     -0.555896      1.204695
  H       3.226437      0.373547     -0.191594
  H       1.112876     -0.071210     -1.408845
  H       0.668031      0.975972      1.443253
  H      -0.942282      1.403185     -1.116708
  H      -1.639091     -0.195656      1.401213
  H      -0.982264     -1.115937     -1.450247
  H      -1.316876     -3.125883     -0.438239
  H      -3.492846     -0.614253      0.083887
  H      -2.312458      2.446392      0.458934
  H       0.886135      2.988770      0.191228
  H       2.504768     -2.350711     -0.293594
24
Coordinates from ORCA-job optfreq E -687.096570053359
  C       2.588354     -0.462027      0.108530
  C       1.159142     -0.173985     -0.311269
  C       0.592480      1.082671      0.345710
  C      -0.875198      1.233312     -0.027695
  C      -1.649306     -0.029624      0.312141
  C      -0.971295     -1.226165     -0.346508
  O       0.378516     -1.310685      0.097496
  O      -1.654939     -2.372327      0.063087
  O      -2.977991      0.159860     -0.164854
  O      -1.374628      2.368574      0.673289
  O       1.353594      2.195290     -0.103209
  O       3.100303     -1.624993     -0.527402
  H       2.625014     -0.555492      1.206853
  H       3.224839      0.375775     -0.188203
  H       1.116428     -0.067830     -1.409868
  H       0.665666      0.974170      1.443033
  H      -0.942216      1.400083     -1.118649
  H      -1.634618     -0.193948      1.402746
  H      -0.987711     -1.115405     -1.449696
  H      -1.327662     -3.125811     -0.442056
  H      -3.490923     -0.617889      0.085096
  H      -2.312201      2.447841      0.458339
  H       0.887775      2.988546      0.190806
  H       2.506574     -2.349939     -0.297715
24
Coordinates from ORCA-job optfreq E -687.096575336238
  C       2.588068     -0.461967      0.110422
  C       1.159383     -0.174325     -0.311829
  C       0.592196      1.082416      0.345062
  C      -0.875352      1.232840     -0.028487
  C      -1.648409     -0.029807      0.313447
  C      -0.971503     -1.225769     -0.347064
  O       0.378957     -1.311393      0.094086
  O      -1.655273     -2.371909      0.063357
  O      -2.978119      0.158781     -0.160737
  O      -1.373897      2.369334      0.671320
  O       1.354050      2.194397     -0.104105
  O       3.102524     -1.624383     -0.524663
  H       2.621786     -0.554939      1.209033
  H       3.223949      0.376775     -0.185015
  H       1.119626     -0.065678     -1.410510
  H       0.664350      0.973535      1.442565
  H      -0.942296      1.397948     -1.119802
  H      -1.630508     -0.193545      1.404221
  H      -0.990993     -1.113358     -1.450058
  H      -1.332862     -3.125257     -0.445089
  H      -3.489228     -0.621039      0.086568
  H      -2.312098      2.448427      0.459107
  H       0.888413      2.988454      0.187942
  H       2.507236     -2.349537     -0.299771
24
Coordinates from ORCA-job optfreq E -687.096576981692
  C       2.587896     -0.462005      0.111610
  C       1.159668     -0.174461     -0.311999
  C       0.592033      1.082386      0.344656
  C      -0.875486      1.232554     -0.028747
  C      -1.647893     -0.029941      0.314419
  C      -0.971634     -1.225348     -0.347449
  O       0.379034     -1.311818      0.092936
  O      -1.655784     -2.371697      0.062723
  O      -2.978431      0.158262     -0.157958
  O      -1.373493      2.369772      0.670624
  O       1.354150      2.194016     -0.105373
  O       3.103371     -1.624426     -0.522928
  H       2.620524     -0.554481      1.210332
  H       3.223768      0.376926     -0.183389
  H       1.121231     -0.064883     -1.410660
  H       0.664155      0.973872      1.442206
  H      -0.942467      1.397203     -1.120129
  H      -1.628312     -0.193494      1.405189
  H      -0.992128     -1.112074     -1.450276
  H      -1.335561     -3.124546     -0.447850
  H      -3.487730     -0.623523      0.087005
  H      -2.312087      2.448473      0.460004
  H       0.888376      2.988480      0.185358
  H       2.506797     -2.349245     -0.300304
24
Coordinates from ORCA-job optfreq E -687.096577926106
  C       2.587831     -0.462035      0.112296
  C       1.159890     -0.174471     -0.311960
  C       0.592022      1.082498      0.344447
  C      -0.875531      1.232489     -0.028777
  C      -1.647524     -0.029942      0.315179
  C      -0.971621     -1.225006     -0.347494
  O       0.379067     -1.312031      0.092771
  O      -1.656122     -2.371548      0.062245
  O      -2.978677      0.157855     -0.155988
  O      -1.373265      2.370134      0.670357
  O       1.354168      2.193923     -0.106403
  O       3.103450     -1.624766     -0.521718
  H       2.620286     -0.554016      1.211054
  H       3.223902      0.376726     -0.182823
  H       1.121857     -0.064671     -1.410571
  H       0.664412      0.974569      1.441998
  H      -0.942609      1.397068     -1.120133
  H      -1.627081     -0.193374      1.405926
  H      -0.992358     -1.111429     -1.450226
  H      -1.337686     -3.123745     -0.450394
  H      -3.486005     -0.626095      0.086270
  H      -2.312152      2.448250      0.460804
  H       0.888126      2.988564      0.183454
  H       2.505615     -2.348946     -0.300310
24
Coordinates from ORCA-job optfreq E -687.096578452443
  C       2.587879     -0.462022      0.112399
  C       1.159988     -0.174368     -0.311809
  C       0.592123      1.082675      0.344455
  C      -0.875480      1.232611     -0.028694
  C      -1.647304     -0.029808      0.315605
  C      -0.971507     -1.224800     -0.347236
  O       0.379104     -1.312014      0.093170
  O      -1.656247     -2.371391      0.062219
  O      -2.978763      0.157596     -0.154984
  O      -1.373219      2.370397      0.670278
  O       1.354177      2.194063     -0.106767
  O       3.102987     -1.625238     -0.521148
  H       2.620753     -0.553571      1.211155
  H       3.224194      0.376375     -0.183247
  H       1.121657     -0.064815     -1.410389
  H       0.664769      0.975183      1.441993
  H      -0.942648      1.397217     -1.120013
  H      -1.626646     -0.193147      1.406346
  H      -0.992078     -1.111353     -1.449963
  H      -1.339128     -3.123101     -0.451934
  H      -3.484382     -0.628320      0.084567
  H      -2.312284      2.447887      0.461273
  H       0.887881      2.988674      0.182785
  H       2.504172     -2.348729     -0.300060
