24
Coordinates from ORCA-job optfreq E -687.096578452443
  C           2.58787863610060     -0.46202197665237      0.11239908454458
  C           1.15998787164167     -0.17436818567319     -0.31180870662196
  C           0.59212334422760      1.08267498748901      0.34445461632274
  C          -0.87547957456604      1.23261144063051     -0.02869437241189
  C          -1.64730422167563     -0.02980754369440      0.31560493397996
  C          -0.97150685423837     -1.22479964832313     -0.34723624030570
  O           0.37910420179060     -1.31201381940687      0.09317010388009
  O          -1.65624716492259     -2.37139125928143      0.06221900622291
  O          -2.97876336618687      0.15759575597153     -0.15498401675877
  O          -1.37321895381349      2.37039735501962      0.67027845781044
  O           1.35417653972067      2.19406258572550     -0.10676701697819
  O           3.10298743196396     -1.62523769744400     -0.52114813748443
  H           2.62075310330482     -0.55357088232283      1.21115464363696
  H           3.22419448722061      0.37637521556441     -0.18324703112784
  H           1.12165652153093     -0.06481456634304     -1.41038907297395
  H           0.66476894920168      0.97518284964190      1.44199280873074
  H          -0.94264825960703      1.39721671006484     -1.12001264096567
  H          -1.62664646396473     -0.19314661894186      1.40634635171921
  H          -0.99207791523585     -1.11135345971128     -1.44996272203880
  H          -1.33912755666177     -3.12310098498144     -0.45193395708642
  H          -3.48438226067570     -0.62831973423538      0.08456684808609
  H          -2.31228414096885      2.44788657457214      0.46127276054977
  H           0.88788116184138      2.98867359163944      0.18278525634815
  H           2.50417248397245     -2.34872868930765     -0.30005995707807
