24
 energy: -43.362941699021 gnorm: 0.000388252417 xtb: 6.7.1pre (5071a88)
C            2.56882817265575       -0.49512585089970        0.12800454983787
C            1.13794841047371       -0.19322995674454       -0.32732459228437
C            0.59672535069572        1.07974198381544        0.33365040258759
C           -0.87793916453356        1.26978849436791       -0.04309321518873
C           -1.66393585011415        0.00497631816561        0.30234351723141
C           -0.99590195526621       -1.20122170987449       -0.37391765086534
O            0.34640065774024       -1.32141185828516        0.01313031701939
O           -1.67659094724105       -2.34414330343156        0.02027568389120
O           -2.98792095327225        0.17224308143801       -0.13649142313543
O           -1.36383889179274        2.39177000856659        0.65119980684042
O            1.36871447753071        2.16814375561428       -0.09146789116434
O            3.10501655228247       -1.60578716988649       -0.53440805449257
H            2.56240671930273       -0.65281210865304        1.21523137411618
H            3.20126425070613        0.35992476708149       -0.11185217051412
H            1.12620441896406       -0.05395801314144       -1.41947459663453
H            0.65646624469354        0.96988388937426        1.42896444615063
H           -0.95417045564142        1.44064011431590       -1.12998985556217
H           -1.63366105690363       -0.15970816744307        1.39086931738980
H           -1.05357561839667       -1.06988201931417       -1.47699404085327
H           -1.10134043465350       -3.10523994632276       -0.12064605029073
H           -3.43612885759468       -0.67749627866165       -0.04817797568163
H           -2.32352111298602        2.39687765667368        0.55101463377727
H            0.90248310395552        2.96850831258545        0.18369457082669
H            2.49606493939534       -2.34247999934051       -0.40454010300125
