 Entering Gaussian System
 *********************************************
 Gaussian 98:
 frequency output generated by the xtb code
 *********************************************
                         Standard orientation:
 --------------------------------------------------------------------
  Center     Atomic     Atomic              Coordinates (Angstroms)
  Number     Number      Type              X           Y           Z
 --------------------------------------------------------------------
    1          6             0       -2.654973   -0.157779    0.152870
    2          8             0       -1.585378    0.743303    0.023122
    3          6             0       -0.304823    0.231641   -0.002775
    4          6             0        0.033202   -1.106214    0.088281
    5          6             0        1.367537   -1.487311    0.048921
    6          6             0        2.361895   -0.538596   -0.080737
    7          6             0        2.032779    0.804085   -0.172656
    8          6             0        0.706868    1.198415   -0.134817
    9          8             0        0.386312    2.516074   -0.225151
   10          1             0       -2.596746   -0.715363    1.093039
   11          1             0       -3.557272    0.452143    0.150819
   12          1             0       -2.690572   -0.860150   -0.685947
   13          1             0       -0.730113   -1.861481    0.190010
   14          1             0        1.618572   -2.534530    0.120911
   15          1             0        3.398204   -0.837704   -0.111052
   16          1             0        2.791240    1.563498   -0.274466
   17          1             0       -0.576733    2.589969   -0.180371
 --------------------------------------------------------------------
     1 basis functions        1 primitive gaussians
     1 alpha electrons        1 beta electrons
 
 Harmonic frequencies (cm**-1), IR intensities (km*mol⁻¹),
 Raman scattering activities (A**4/amu), Raman depolarization ratios,
 reduced masses (AMU), force constants (mDyne/A) and normal coordinates:
                      1                      2                      3
                        a                      a                      a 
 Frequencies --    81.5257               168.1547               214.5987
 Red. masses --     9.8889                11.1157                10.8703
 Frc consts  --     0.0000                 0.0000                 0.0000
 IR Inten    --     3.4246                 1.5041                 0.6903
 Raman Activ --     0.0000                 0.0000                 0.0000
 Depolar     --     0.0000                 0.0000                 0.0000
 Atom AN      X      Y      Z        X      Y      Z        X      Y      Z
   1   6    -0.03  -0.04  -0.51     0.00   0.00   0.03     0.20  -0.51   0.03
   2   8     0.02   0.04   0.44    -0.03  -0.04  -0.51    -0.20  -0.05   0.01
   3   6     0.01   0.02   0.25    -0.00  -0.00  -0.03    -0.07   0.21  -0.01
   4   6     0.02   0.03   0.31     0.01   0.02   0.27    -0.14   0.19  -0.01
   5   6     0.00   0.01   0.08     0.01   0.02   0.20    -0.20   0.02   0.01
   6   6    -0.01  -0.02  -0.22    -0.01  -0.02  -0.26    -0.12  -0.08   0.01
   7   6    -0.01  -0.02  -0.24    -0.01  -0.02  -0.26    -0.02  -0.06   0.01
   8   6     0.00   0.00   0.02     0.00   0.00   0.03     0.02   0.12  -0.01
   9   8     0.00   0.00   0.00     0.02   0.04   0.47     0.43   0.25  -0.04
  10   1    -0.16  -0.10  -0.19    -0.04   0.22   0.14     0.14  -0.15   0.01
  11   1    -0.01  -0.02  -0.24    -0.01  -0.02  -0.19    -0.02  -0.27   0.02
  12   1     0.14   0.06  -0.22     0.06  -0.19   0.17     0.14  -0.15   0.00
  13   1     0.01   0.01   0.15     0.01   0.01   0.15    -0.05   0.07  -0.00
  14   1     0.00   0.00   0.04     0.01   0.01   0.12    -0.10  -0.00   0.01
  15   1    -0.01  -0.01  -0.13    -0.01  -0.01  -0.14    -0.04  -0.05   0.01
  16   1    -0.01  -0.01  -0.13    -0.01  -0.01  -0.12     0.01  -0.04   0.00
  17   1     0.00   0.00   0.04     0.01   0.01   0.13     0.12   0.15  -0.02
                      4                      5                      6
                        a                      a                      a 
 Frequencies --   229.9452               288.7483               324.0219
 Red. masses --     4.0700                 9.6813                11.7033
 Frc consts  --     0.0000                 0.0000                 0.0000
 IR Inten    --     0.1926                 0.7479                 4.2536
 Raman Activ --     0.0000                 0.0000                 0.0000
 Depolar     --     0.0000                 0.0000                 0.0000
 Atom AN      X      Y      Z        X      Y      Z        X      Y      Z
   1   6     0.00   0.00   0.04    -0.00  -0.00  -0.03    -0.51   0.05   0.02
   2   8     0.01   0.01   0.09    -0.02  -0.03  -0.35    -0.27  -0.25   0.03
   3   6     0.01   0.01   0.14     0.01   0.02   0.28    -0.13  -0.06   0.01
   4   6    -0.00  -0.00  -0.01     0.02   0.03   0.38     0.16  -0.02  -0.01
   5   6    -0.02  -0.02  -0.29    -0.01  -0.02  -0.21     0.20   0.08  -0.02
   6   6    -0.00  -0.00  -0.03    -0.02  -0.02  -0.30     0.18   0.11  -0.02
   7   6     0.01   0.02   0.27     0.02   0.03   0.32    -0.04   0.02   0.00
   8   6     0.01   0.01   0.11     0.02   0.02   0.30    -0.08  -0.07   0.01
   9   8    -0.01  -0.02  -0.24    -0.01  -0.02  -0.22     0.52   0.06  -0.03
  10   1    -0.25   0.34   0.23     0.15  -0.12  -0.09    -0.21   0.01   0.01
  11   1    -0.03  -0.04  -0.48     0.01   0.02   0.23    -0.09   0.11  -0.00
  12   1     0.28  -0.30   0.25    -0.16   0.10  -0.09    -0.21   0.01   0.01
  13   1     0.00   0.00   0.02     0.01   0.01   0.13     0.06  -0.03  -0.00
  14   1    -0.01  -0.01  -0.17    -0.01  -0.01  -0.18     0.07   0.03  -0.01
  15   1    -0.00  -0.00  -0.03    -0.01  -0.02  -0.23     0.06   0.06  -0.01
  16   1     0.01   0.01   0.12     0.01   0.01   0.10    -0.06   0.05  -0.00
  17   1    -0.00  -0.01  -0.09    -0.01  -0.01  -0.14     0.14   0.15  -0.02
                      7                      8                      9
                        a                      a                      a 
 Frequencies --   432.9981               473.8152               479.9972
 Red. masses --     9.3525                12.8715                 2.5829
 Frc consts  --     0.0000                 0.0000                 0.0000
 IR Inten    --     1.5464                 2.0637               173.6047
 Raman Activ --     0.0000                 0.0000                 0.0000
 Depolar     --     0.0000                 0.0000                 0.0000
 Atom AN      X      Y      Z        X      Y      Z        X      Y      Z
   1   6     0.00   0.00   0.00    -0.11   0.03   0.00    -0.00  -0.00  -0.01
   2   8     0.01   0.01   0.15     0.25  -0.40   0.02    -0.00  -0.01  -0.10
   3   6    -0.03  -0.04  -0.49     0.28  -0.00  -0.01     0.01   0.01   0.13
   4   6     0.02   0.03   0.34     0.10  -0.05  -0.00    -0.00  -0.00  -0.01
   5   6    -0.01  -0.01  -0.11    -0.02  -0.33   0.03    -0.00  -0.00  -0.03
   6   6    -0.01  -0.01  -0.13    -0.23  -0.12   0.02     0.00   0.01   0.06
   7   6     0.02   0.03   0.33    -0.11  -0.03   0.01    -0.00   0.00  -0.00
   8   6    -0.02  -0.04  -0.47     0.00   0.36  -0.03     0.00   0.01   0.06
   9   8     0.00   0.01   0.09    -0.11   0.50  -0.03    -0.01  -0.02  -0.27
  10   1    -0.02  -0.03  -0.01    -0.13   0.01   0.01     0.01   0.00  -0.00
  11   1     0.00   0.00   0.01     0.06   0.14  -0.01     0.00   0.00   0.00
  12   1     0.01   0.03  -0.02    -0.13   0.01   0.00    -0.01  -0.00   0.00
  13   1     0.02   0.03   0.32    -0.05   0.06  -0.00    -0.00  -0.01  -0.07
  14   1     0.00   0.00   0.01     0.00  -0.09   0.01    -0.00  -0.00  -0.05
  15   1     0.00   0.00   0.00    -0.05   0.00   0.00     0.00   0.00   0.02
  16   1     0.02   0.03   0.32     0.05  -0.09   0.00    -0.00  -0.00  -0.05
  17   1     0.01   0.02   0.19    -0.03   0.10  -0.01     0.05   0.08   0.93
                     10                     11                     12
                        a                      a                      a 
 Frequencies --   510.4545               526.6243               562.8445
 Red. masses --    11.0684                10.4514                11.6463
 Frc consts  --     0.0000                 0.0000                 0.0000
 IR Inten    --     8.0602                 0.6166                 2.5212
 Raman Activ --     0.0000                 0.0000                 0.0000
 Depolar     --     0.0000                 0.0000                 0.0000
 Atom AN      X      Y      Z        X      Y      Z        X      Y      Z
   1   6     0.29   0.12  -0.03     0.00   0.00   0.02    -0.10  -0.06   0.01
   2   8     0.24   0.07  -0.02     0.01   0.01   0.14     0.16  -0.32   0.02
   3   6    -0.04  -0.29   0.03    -0.02  -0.03  -0.32     0.16  -0.07  -0.00
   4   6    -0.09  -0.36   0.03    -0.01  -0.02  -0.27    -0.35  -0.10   0.03
   5   6     0.00  -0.04   0.00     0.02   0.04   0.47    -0.31   0.28  -0.01
   6   6    -0.25   0.24  -0.01    -0.02  -0.04  -0.46    -0.21   0.22  -0.01
   7   6    -0.34   0.17   0.00     0.01   0.02   0.26     0.35   0.33  -0.04
   8   6    -0.30  -0.08   0.02     0.02   0.03   0.34     0.26  -0.06  -0.01
   9   8     0.32   0.04  -0.02    -0.01  -0.01  -0.17     0.09  -0.16   0.01
  10   1     0.10   0.03  -0.01    -0.03   0.00   0.01    -0.10  -0.01   0.01
  11   1     0.07   0.01  -0.00    -0.00  -0.00  -0.03     0.04   0.09  -0.01
  12   1     0.10   0.03  -0.01     0.03  -0.00   0.01    -0.10  -0.02   0.00
  13   1    -0.00  -0.13   0.01    -0.01  -0.01  -0.11    -0.12  -0.00   0.01
  14   1     0.11   0.01  -0.01     0.01   0.02   0.26    -0.02   0.10  -0.01
  15   1    -0.06   0.12  -0.01    -0.01  -0.02  -0.26    -0.10  -0.06   0.01
  16   1    -0.14   0.09   0.00     0.00   0.01   0.08     0.11   0.08  -0.01
  17   1     0.09   0.19  -0.02     0.00   0.00   0.04     0.02  -0.08   0.01
                     13                     14                     15
                        a                      a                      a 
 Frequencies --   669.0069               777.4486               779.5558
 Red. masses --    11.8119                11.5189                 3.3343
 Frc consts  --     0.0000                 0.0000                 0.0000
 IR Inten    --     0.0126                42.2237                50.6899
 Raman Activ --     0.0000                 0.0000                 0.0000
 Depolar     --     0.0000                 0.0000                 0.0000
 Atom AN      X      Y      Z        X      Y      Z        X      Y      Z
   1   6    -0.00  -0.00  -0.01     0.18   0.05  -0.01     0.00   0.00  -0.00
   2   8    -0.00  -0.01  -0.08     0.34  -0.37   0.01     0.00  -0.01  -0.05
   3   6     0.03   0.05   0.58    -0.04   0.12  -0.01     0.01   0.02   0.16
   4   6    -0.01  -0.02  -0.28    -0.01   0.39  -0.03    -0.01  -0.01  -0.21
   5   6     0.01   0.02   0.24    -0.12   0.34  -0.02    -0.01  -0.01  -0.21
   6   6    -0.01  -0.02  -0.25     0.18  -0.06  -0.00    -0.01  -0.02  -0.17
   7   6     0.01   0.02   0.27    -0.33  -0.23   0.04    -0.02  -0.02  -0.16
   8   6    -0.03  -0.05  -0.59    -0.19  -0.10   0.01     0.01   0.01   0.20
   9   8     0.00   0.01   0.09     0.02  -0.17   0.01    -0.00  -0.01  -0.06
  10   1     0.01   0.01  -0.00    -0.07   0.02   0.00     0.00  -0.01  -0.01
  11   1     0.00   0.00   0.01     0.16   0.17  -0.02     0.00   0.01   0.02
  12   1    -0.01  -0.01   0.00    -0.07   0.02  -0.00    -0.01   0.01  -0.01
  13   1    -0.00  -0.01  -0.08    -0.02   0.13  -0.02     0.02   0.04   0.44
  14   1     0.00   0.00   0.05    -0.17   0.06  -0.01     0.02   0.04   0.51
  15   1    -0.00  -0.00  -0.03     0.05  -0.00  -0.01     0.03   0.04   0.46
  16   1     0.01   0.01   0.12    -0.17   0.01   0.00     0.01   0.03   0.32
  17   1     0.00   0.00   0.00     0.01   0.02  -0.00     0.00   0.00   0.01
                     16                     17                     18
                        a                      a                      a 
 Frequencies --   822.2915               861.9011               894.6670
 Red. masses --    11.9333                 3.2734                 3.9099
 Frc consts  --     0.0000                 0.0000                 0.0000
 IR Inten    --    16.8883                 0.1946                 3.6864
 Raman Activ --     0.0000                 0.0000                 0.0000
 Depolar     --     0.0000                 0.0000                 0.0000
 Atom AN      X      Y      Z        X      Y      Z        X      Y      Z
   1   6     0.04   0.03  -0.00     0.00   0.00   0.00    -0.00  -0.00  -0.00
   2   8     0.03  -0.01  -0.00    -0.00  -0.00  -0.01     0.00   0.00   0.01
   3   6    -0.12  -0.20   0.02     0.00   0.00   0.01    -0.00  -0.00  -0.03
   4   6    -0.32  -0.33   0.04    -0.02  -0.03  -0.31     0.01   0.02   0.23
   5   6    -0.07   0.33  -0.02    -0.00  -0.01  -0.08    -0.02  -0.02  -0.30
   6   6     0.46  -0.17  -0.01     0.01   0.02   0.21    -0.01  -0.01  -0.12
   7   6     0.11  -0.17   0.01     0.01   0.02   0.23     0.02   0.03   0.31
   8   6    -0.02   0.02  -0.00    -0.00  -0.00  -0.02    -0.00  -0.01  -0.08
   9   8    -0.13   0.47  -0.03     0.00   0.00   0.01     0.00   0.00   0.02
  10   1     0.02   0.01  -0.00    -0.00  -0.01  -0.00     0.00   0.01   0.00
  11   1    -0.00  -0.01   0.00     0.00   0.00   0.02    -0.00  -0.00  -0.01
  12   1     0.02   0.01  -0.00     0.00   0.01  -0.01    -0.00  -0.01   0.00
  13   1     0.01  -0.19   0.02     0.03   0.05   0.63    -0.02  -0.03  -0.38
  14   1    -0.03   0.08  -0.01     0.00   0.01   0.08     0.03   0.04   0.54
  15   1     0.10  -0.15   0.01    -0.02  -0.03  -0.34     0.01   0.02   0.20
  16   1     0.01  -0.02   0.00    -0.03  -0.04  -0.52    -0.03  -0.04  -0.50
  17   1    -0.03   0.11  -0.01     0.00   0.00   0.01    -0.00  -0.00  -0.01
                     19                     20                     21
                        a                      a                      a 
 Frequencies --   916.5770              1045.0594              1086.8472
 Red. masses --     3.0373                11.1173                 5.9901
 Frc consts  --     0.0000                 0.0000                 0.0000
 IR Inten    --     0.2629                13.0552                 2.7643
 Raman Activ --     0.0000                 0.0000                 0.0000
 Depolar     --     0.0000                 0.0000                 0.0000
 Atom AN      X      Y      Z        X      Y      Z        X      Y      Z
   1   6    -0.00  -0.00  -0.00     0.43   0.23  -0.04     0.10   0.13  -0.02
   2   8    -0.00  -0.00  -0.00    -0.29  -0.30   0.04    -0.14  -0.12   0.02
   3   6     0.00   0.01   0.08    -0.39   0.00   0.02    -0.09  -0.05   0.01
   4   6     0.00   0.00   0.03     0.09   0.11  -0.01     0.21   0.02  -0.01
   5   6    -0.01  -0.02  -0.22     0.01  -0.23   0.02     0.03   0.36  -0.03
   6   6     0.02   0.03   0.32    -0.01  -0.04   0.00    -0.35   0.05   0.01
   7   6    -0.01  -0.01  -0.15     0.32   0.23  -0.04    -0.05  -0.24   0.02
   8   6    -0.00  -0.00  -0.06    -0.07  -0.17   0.02     0.06   0.05  -0.01
   9   8    -0.00  -0.00  -0.01    -0.06   0.10  -0.00     0.02   0.01  -0.00
  10   1     0.00   0.00   0.00    -0.02   0.04  -0.00     0.04   0.01  -0.01
  11   1    -0.00  -0.00  -0.01     0.18   0.18  -0.02     0.01   0.01  -0.00
  12   1    -0.00  -0.00   0.00    -0.02   0.04  -0.00     0.04   0.01   0.01
  13   1    -0.01  -0.01  -0.17     0.04   0.01  -0.00     0.30  -0.24   0.00
  14   1     0.03   0.04   0.48    -0.08  -0.08   0.01     0.17   0.15  -0.02
  15   1    -0.03  -0.05  -0.64    -0.03  -0.14   0.01    -0.13  -0.06   0.01
  16   1     0.02   0.03   0.37     0.05   0.10  -0.01     0.36  -0.45   0.02
  17   1     0.00   0.00   0.01     0.00   0.18  -0.01    -0.00  -0.09   0.01
                     22                     23                     24
                        a                      a                      a 
 Frequencies --  1112.5873              1125.8997              1155.2484
 Red. masses --     8.0575                 3.7313                 5.7177
 Frc consts  --     0.0000                 0.0000                 0.0000
 IR Inten    --    47.7848                 2.3730                 6.1470
 Raman Activ --     0.0000                 0.0000                 0.0000
 Depolar     --     0.0000                 0.0000                 0.0000
 Atom AN      X      Y      Z        X      Y      Z        X      Y      Z
   1   6     0.31   0.07  -0.02    -0.02  -0.03  -0.42     0.04  -0.42   0.03
   2   8    -0.41  -0.10   0.03     0.01   0.02   0.22     0.11   0.35  -0.03
   3   6     0.13   0.13  -0.02    -0.00  -0.00  -0.00    -0.06   0.08  -0.00
   4   6    -0.28  -0.17   0.03    -0.00  -0.00  -0.00    -0.00  -0.04   0.00
   5   6     0.08  -0.06   0.00     0.00   0.00   0.00     0.03  -0.01  -0.00
   6   6     0.14   0.08  -0.01     0.00  -0.00   0.00    -0.01   0.05  -0.00
   7   6    -0.16  -0.13   0.02     0.00   0.00  -0.00     0.08  -0.05  -0.00
   8   6     0.12   0.20  -0.02    -0.00   0.00   0.00    -0.10  -0.09   0.01
   9   8     0.09  -0.07   0.00    -0.00  -0.00  -0.00    -0.09  -0.05   0.01
  10   1    -0.10   0.02   0.02     0.43   0.40   0.12    -0.31  -0.03   0.06
  11   1     0.17   0.17  -0.02     0.01   0.02   0.22     0.31   0.35  -0.04
  12   1    -0.10   0.02  -0.01    -0.41  -0.37   0.23    -0.31  -0.04  -0.02
  13   1    -0.21   0.09   0.00     0.00   0.00   0.02    -0.02   0.01   0.00
  14   1     0.22   0.02  -0.01    -0.00  -0.00  -0.00     0.17   0.04  -0.01
  15   1     0.13   0.35  -0.03    -0.00  -0.00   0.00    -0.01   0.01  -0.00
  16   1    -0.00  -0.08   0.01     0.00  -0.00   0.00     0.16  -0.16   0.00
  17   1    -0.01  -0.32   0.03     0.00   0.00   0.00     0.01   0.35  -0.03
                     25                     26                     27
                        a                      a                      a 
 Frequencies --  1171.9377              1179.4549              1204.2280
 Red. masses --     2.4962                 4.6849                 7.0395
 Frc consts  --     0.0000                 0.0000                 0.0000
 IR Inten    --    65.9044               143.5569               101.3759
 Raman Activ --     0.0000                 0.0000                 0.0000
 Depolar     --     0.0000                 0.0000                 0.0000
 Atom AN      X      Y      Z        X      Y      Z        X      Y      Z
   1   6     0.07  -0.10   0.00     0.04   0.17  -0.02    -0.11   0.01   0.00
   2   8    -0.08   0.10  -0.00    -0.19  -0.10   0.02     0.29  -0.08  -0.01
   3   6     0.05   0.05  -0.01     0.31   0.06  -0.02    -0.40   0.04   0.02
   4   6     0.13  -0.03  -0.00     0.03  -0.07   0.00    -0.17   0.17  -0.01
   5   6     0.00   0.07  -0.01    -0.01   0.09  -0.01     0.15  -0.09  -0.00
   6   6    -0.13  -0.09   0.01     0.07   0.00  -0.00    -0.07   0.01   0.00
   7   6    -0.08  -0.04   0.01     0.02  -0.08   0.01     0.07  -0.07   0.00
   8   6     0.06  -0.02  -0.00    -0.17   0.10   0.00     0.08  -0.27   0.02
   9   8     0.06   0.15  -0.02    -0.08  -0.22   0.02    -0.02   0.21  -0.02
  10   1    -0.10  -0.00   0.02     0.08   0.02  -0.01     0.09   0.01  -0.01
  11   1     0.12   0.14  -0.02    -0.12  -0.15   0.02    -0.09  -0.10   0.01
  12   1    -0.10  -0.01  -0.01     0.08   0.02   0.00     0.09   0.01  -0.00
  13   1     0.10  -0.07   0.00    -0.27   0.27  -0.01    -0.24   0.24  -0.01
  14   1     0.30   0.09  -0.02     0.37   0.11  -0.03     0.56   0.10  -0.04
  15   1    -0.18  -0.52   0.05    -0.09  -0.36   0.03     0.01   0.12  -0.01
  16   1    -0.38   0.35  -0.01     0.02  -0.03   0.00     0.05  -0.05   0.00
  17   1    -0.02  -0.38   0.03     0.02   0.46  -0.04    -0.02  -0.13   0.01
                     28                     29                     30
                        a                      a                      a 
 Frequencies --  1270.9120              1281.7606              1360.2939
 Red. masses --     4.1494                10.3798                10.3383
 Frc consts  --     0.0000                 0.0000                 0.0000
 IR Inten    --    23.6925               227.5867                17.4777
 Raman Activ --     0.0000                 0.0000                 0.0000
 Depolar     --     0.0000                 0.0000                 0.0000
 Atom AN      X      Y      Z        X      Y      Z        X      Y      Z
   1   6     0.04  -0.07   0.00     0.07   0.02  -0.01     0.09  -0.00  -0.00
   2   8    -0.00   0.10  -0.01    -0.16   0.06   0.00    -0.13   0.08   0.00
   3   6    -0.07  -0.31   0.03     0.25  -0.09  -0.01     0.03  -0.46   0.04
   4   6     0.09  -0.01  -0.00     0.32  -0.09  -0.01    -0.09   0.22  -0.01
   5   6     0.16   0.06  -0.01    -0.21   0.13   0.00     0.31   0.22  -0.03
   6   6     0.10   0.06  -0.01    -0.14   0.23  -0.01    -0.23  -0.35   0.04
   7   6    -0.12   0.20  -0.01     0.17  -0.32   0.02    -0.15   0.09   0.00
   8   6    -0.18   0.04   0.01    -0.01  -0.47   0.04     0.42   0.01  -0.02
   9   8     0.12   0.07  -0.01    -0.07   0.31  -0.02    -0.08   0.01   0.00
  10   1    -0.04   0.02   0.02    -0.05   0.01   0.01    -0.09  -0.01   0.00
  11   1     0.02   0.01  -0.00    -0.02  -0.05   0.01    -0.01  -0.04   0.00
  12   1    -0.05   0.01  -0.02    -0.05   0.01  -0.01    -0.09  -0.01   0.01
  13   1    -0.34   0.37  -0.01    -0.17   0.24  -0.01    -0.08   0.12  -0.01
  14   1    -0.26  -0.05   0.02    -0.15   0.02   0.01    -0.06   0.03   0.00
  15   1    -0.07  -0.34   0.03     0.01   0.24  -0.02    -0.00   0.13  -0.01
  16   1     0.28  -0.26   0.01    -0.12   0.06   0.00    -0.14   0.11  -0.00
  17   1    -0.01  -0.34   0.03    -0.02  -0.02   0.00     0.01   0.26  -0.02
                     31                     32                     33
                        a                      a                      a 
 Frequencies --  1405.2299              1451.8330              1470.2066
 Red. masses --     2.5754                 9.3944                 1.5488
 Frc consts  --     0.0000                 0.0000                 0.0000
 IR Inten    --     0.6686                 1.1511                 5.0394
 Raman Activ --     0.0000                 0.0000                 0.0000
 Depolar     --     0.0000                 0.0000                 0.0000
 Atom AN      X      Y      Z        X      Y      Z        X      Y      Z
   1   6     0.27   0.18  -0.03     0.01  -0.05   0.00    -0.01  -0.02  -0.22
   2   8     0.12   0.04  -0.01    -0.03   0.07  -0.00    -0.00  -0.00  -0.03
   3   6    -0.03   0.05  -0.00     0.07  -0.32   0.02    -0.00   0.00  -0.00
   4   6    -0.02   0.02  -0.00     0.21   0.16  -0.02    -0.00   0.00   0.00
   5   6    -0.04  -0.05   0.01    -0.42   0.06   0.02     0.00  -0.00   0.00
   6   6     0.04   0.01  -0.00     0.07  -0.39   0.03    -0.00   0.00  -0.00
   7   6     0.00   0.03  -0.00     0.18   0.20  -0.03    -0.00  -0.00   0.00
   8   6    -0.06  -0.00   0.00    -0.34   0.17   0.00     0.00   0.00  -0.00
   9   8     0.02   0.00  -0.00     0.08  -0.03  -0.00    -0.00  -0.00  -0.00
  10   1    -0.47  -0.20  -0.10    -0.00   0.05   0.03    -0.44   0.14   0.10
  11   1    -0.30  -0.46   0.05     0.02   0.02  -0.00     0.04   0.06   0.71
  12   1    -0.46  -0.18   0.18    -0.00   0.04  -0.04     0.45  -0.12   0.08
  13   1     0.07  -0.07   0.00     0.07   0.04  -0.01    -0.00  -0.00  -0.02
  14   1     0.04  -0.00  -0.00     0.30   0.12  -0.03    -0.00  -0.00   0.00
  15   1     0.01  -0.01   0.00     0.13   0.27  -0.03    -0.00  -0.00  -0.00
  16   1     0.03  -0.02  -0.00     0.06   0.05  -0.01    -0.00  -0.00   0.00
  17   1    -0.00  -0.06   0.00     0.00  -0.15   0.01     0.00   0.00   0.00
                     34                     35                     36
                        a                      a                      a 
 Frequencies --  1484.6094              1492.5614              1592.9628
 Red. masses --     3.0347                 9.1813                11.5169
 Frc consts  --     0.0000                 0.0000                 0.0000
 IR Inten    --    78.4995               182.3708                19.4028
 Raman Activ --     0.0000                 0.0000                 0.0000
 Depolar     --     0.0000                 0.0000                 0.0000
 Atom AN      X      Y      Z        X      Y      Z        X      Y      Z
   1   6     0.11  -0.16   0.01     0.03  -0.06   0.00    -0.01   0.02  -0.00
   2   8     0.07  -0.06   0.00    -0.12  -0.01   0.01     0.02  -0.04   0.00
   3   6    -0.19   0.07   0.00     0.40  -0.01  -0.02     0.12   0.45  -0.04
   4   6     0.08  -0.13   0.01    -0.25   0.29  -0.01    -0.03  -0.27   0.02
   5   6     0.02   0.05  -0.00    -0.00  -0.16   0.01     0.34   0.26  -0.04
   6   6    -0.06   0.03   0.00     0.14   0.01  -0.01    -0.22  -0.48   0.05
   7   6     0.08  -0.11   0.00    -0.24   0.24  -0.01     0.09   0.22  -0.02
   8   6     0.04   0.19  -0.02    -0.02  -0.46   0.04    -0.30  -0.21   0.03
   9   8     0.00  -0.08   0.01    -0.02   0.17  -0.01     0.03   0.03  -0.00
  10   1    -0.12   0.50   0.31    -0.02   0.22   0.13     0.00  -0.00  -0.00
  11   1    -0.15  -0.25   0.03    -0.05  -0.07   0.01    -0.02  -0.01   0.00
  12   1    -0.15   0.45  -0.37    -0.03   0.19  -0.16     0.01   0.00   0.00
  13   1    -0.03   0.02   0.00     0.20  -0.18   0.00    -0.08   0.01   0.00
  14   1    -0.06  -0.00   0.00     0.11  -0.02  -0.00    -0.11   0.02   0.00
  15   1    -0.01   0.02  -0.00     0.01  -0.10   0.01     0.01   0.13  -0.01
  16   1    -0.06   0.06  -0.00     0.14  -0.15   0.00     0.05   0.03  -0.00
  17   1     0.00   0.02  -0.00    -0.01  -0.01   0.00    -0.00  -0.09   0.01
                     37                     38                     39
                        a                      a                      a 
 Frequencies --  1598.2749              2934.8775              2948.7560
 Red. masses --    11.5514                 1.9483                 1.4500
 Frc consts  --     0.0000                 0.0000                 0.0000
 IR Inten    --    25.9647                41.2198                30.3252
 Raman Activ --     0.0000                 0.0000                 0.0000
 Depolar     --     0.0000                 0.0000                 0.0000
 Atom AN      X      Y      Z        X      Y      Z        X      Y      Z
   1   6    -0.00  -0.01   0.00     0.02   0.02   0.29    -0.02   0.20  -0.02
   2   8    -0.01   0.02  -0.00     0.00   0.00   0.01     0.01   0.02  -0.00
   3   6     0.17  -0.21   0.01    -0.00  -0.00  -0.00    -0.00   0.00   0.00
   4   6    -0.35   0.30  -0.01     0.00  -0.00  -0.00    -0.00  -0.00   0.00
   5   6     0.36  -0.04  -0.02     0.00   0.00   0.00     0.00  -0.00   0.00
   6   6    -0.16   0.16  -0.00     0.00  -0.00   0.00    -0.00  -0.00   0.00
   7   6     0.41  -0.33   0.01     0.00  -0.00   0.00    -0.00   0.00   0.00
   8   6    -0.43   0.14   0.01     0.00  -0.00   0.00     0.00   0.00  -0.00
   9   8     0.04  -0.01  -0.00    -0.00   0.00  -0.00    -0.00  -0.00   0.00
  10   1     0.00   0.00   0.00    -0.05   0.36  -0.56     0.04  -0.33   0.61
  11   1     0.00   0.00  -0.00     0.00   0.00   0.05     0.02   0.01  -0.00
  12   1    -0.00   0.00  -0.00    -0.01  -0.45  -0.51    -0.02  -0.42  -0.55
  13   1     0.07  -0.08   0.00    -0.00  -0.00  -0.00     0.02   0.01  -0.00
  14   1    -0.07  -0.05   0.01    -0.00   0.00  -0.00    -0.00   0.00   0.00
  15   1    -0.05   0.00   0.00    -0.00   0.00  -0.00     0.00  -0.00   0.00
  16   1    -0.07   0.09  -0.00    -0.00   0.00   0.00    -0.00  -0.00   0.00
  17   1    -0.00  -0.09   0.01     0.00   0.00   0.00     0.00  -0.00   0.00
                     40                     41                     42
                        a                      a                      a 
 Frequencies --  3025.0456              3085.8883              3095.4663
 Red. masses --     1.6905                 1.7630                 1.8266
 Frc consts  --     0.0000                 0.0000                 0.0000
 IR Inten    --    17.4176                 4.6192                35.1466
 Raman Activ --     0.0000                 0.0000                 0.0000
 Depolar     --     0.0000                 0.0000                 0.0000
 Atom AN      X      Y      Z        X      Y      Z        X      Y      Z
   1   6     0.21  -0.14   0.00     0.00  -0.00   0.00    -0.00   0.00  -0.00
   2   8     0.01   0.00  -0.00    -0.00   0.00  -0.00    -0.00   0.00  -0.00
   3   6    -0.00  -0.00   0.00    -0.00  -0.00   0.00     0.01   0.00  -0.00
   4   6     0.00   0.00  -0.00    -0.05  -0.05   0.01     0.09   0.09  -0.01
   5   6    -0.00  -0.00   0.00    -0.05   0.21  -0.01     0.02  -0.10   0.01
   6   6     0.00  -0.00  -0.00     0.13  -0.04  -0.00     0.20  -0.06  -0.01
   7   6     0.00   0.00  -0.00    -0.01  -0.01   0.00    -0.05  -0.05   0.01
   8   6    -0.00  -0.00   0.00    -0.00  -0.00   0.00    -0.00  -0.00   0.00
   9   8     0.00   0.00  -0.00     0.00  -0.00   0.00     0.00   0.00  -0.00
  10   1     0.03  -0.03   0.02    -0.00   0.00  -0.00     0.00  -0.00   0.01
  11   1    -0.80   0.55  -0.00    -0.00   0.00  -0.00     0.01  -0.00   0.00
  12   1     0.02  -0.04  -0.01     0.00   0.00   0.00    -0.00  -0.00  -0.00
  13   1    -0.01  -0.01   0.00     0.19   0.18  -0.02    -0.33  -0.33   0.04
  14   1    -0.00   0.00  -0.00     0.18  -0.75   0.05    -0.08   0.33  -0.02
  15   1    -0.00   0.00   0.00    -0.49   0.14   0.01    -0.69   0.20   0.02
  16   1    -0.00  -0.00   0.00     0.06   0.06  -0.01     0.18   0.18  -0.02
  17   1    -0.00  -0.00   0.00     0.00  -0.00   0.00    -0.00   0.00   0.00
                     43                     44                     45
                        a                      a                      a 
 Frequencies --  3104.6806              3113.4559              3489.7341
 Red. masses --     1.8716                 1.8738                 1.8626
 Frc consts  --     0.0000                 0.0000                 0.0000
 IR Inten    --    44.6444                16.8930                50.4545
 Raman Activ --     0.0000                 0.0000                 0.0000
 Depolar     --     0.0000                 0.0000                 0.0000
 Atom AN      X      Y      Z        X      Y      Z        X      Y      Z
   1   6     0.00  -0.00   0.00     0.00   0.00  -0.00     0.00   0.00  -0.00
   2   8     0.00  -0.00   0.00    -0.00  -0.00   0.00     0.00  -0.00   0.00
   3   6    -0.01   0.00   0.00     0.00   0.00  -0.00    -0.00   0.00  -0.00
   4   6    -0.16  -0.16   0.02     0.02   0.02  -0.00     0.00  -0.00   0.00
   5   6     0.03  -0.13   0.01    -0.01   0.04  -0.00    -0.00   0.00   0.00
   6   6     0.06  -0.02  -0.00    -0.09   0.03   0.00     0.00  -0.00  -0.00
   7   6    -0.05  -0.04   0.01    -0.18  -0.18   0.02    -0.00   0.00  -0.00
   8   6     0.00  -0.00   0.00     0.00  -0.01   0.00     0.01  -0.01   0.00
   9   8    -0.00  -0.00   0.00     0.00   0.00  -0.00     0.24  -0.02  -0.01
  10   1    -0.00   0.01  -0.01     0.00  -0.00   0.00    -0.00  -0.00   0.00
  11   1    -0.01   0.00  -0.00    -0.00   0.00   0.00     0.00  -0.00  -0.00
  12   1     0.00   0.01   0.01     0.00  -0.00  -0.00    -0.00  -0.00  -0.00
  13   1     0.56   0.55  -0.07    -0.07  -0.07   0.01     0.00   0.00  -0.00
  14   1    -0.10   0.42  -0.03     0.03  -0.14   0.01    -0.00   0.00   0.00
  15   1    -0.22   0.06   0.01     0.29  -0.08  -0.01    -0.00  -0.00   0.00
  16   1     0.16   0.16  -0.02     0.63   0.63  -0.08    -0.01  -0.00   0.00
  17   1     0.00   0.00  -0.00    -0.01   0.00   0.00    -0.97   0.09   0.04
