      -----------------------------------------------------------      
     |                   =====================                   |     
     |                           x T B                           |     
     |                   =====================                   |     
     |                         S. Grimme                         |     
     |          Mulliken Center for Theoretical Chemistry        |     
     |                    University of Bonn                     |     
      -----------------------------------------------------------      

   * xtb version 6.7.1pre (5071a88) compiled by 'Marcel@Raven' on 2024-07-23

   xtb is free software: you can redistribute it and/or modify it under
   the terms of the GNU Lesser General Public License as published by
   the Free Software Foundation, either version 3 of the License, or
   (at your option) any later version.
   
   xtb is distributed in the hope that it will be useful,
   but WITHOUT ANY WARRANTY; without even the implied warranty of
   MERCHANTABILITY or FITNESS FOR A PARTICULAR PURPOSE.  See the
   GNU Lesser General Public License for more details.
   
   Cite this work as:
   * C. Bannwarth, E. Caldeweyher, S. Ehlert, A. Hansen, P. Pracht,
     J. Seibert, S. Spicher, S. Grimme, WIREs Comput. Mol. Sci., 2020, 11,
     e01493. DOI: 10.1002/wcms.1493
   
   for GFN2-xTB:
   * C. Bannwarth, S. Ehlert and S. Grimme., J. Chem. Theory Comput., 2019,
     15, 1652-1671. DOI: 10.1021/acs.jctc.8b01176
   for GFN1-xTB:
   * S. Grimme, C. Bannwarth, P. Shushkov, J. Chem. Theory Comput., 2017,
     13, 1989-2009. DOI: 10.1021/acs.jctc.7b00118
   for GFN0-xTB:
   * P. Pracht, E. Caldeweyher, S. Ehlert, S. Grimme, ChemRxiv, 2019, preprint.
     DOI: 10.26434/chemrxiv.8326202.v1
   for GFN-FF:
   * S. Spicher and S. Grimme, Angew. Chem. Int. Ed., 2020, 59, 15665-15673.
     DOI: 10.1002/anie.202004239
   
   for ALPB and GBSA implicit solvation:
   * S. Ehlert, M. Stahn, S. Spicher, S. Grimme, J. Chem. Theory Comput.,
     2021, 17, 4250-4261. DOI: 10.1021/acs.jctc.1c00471
   
   for ddCOSMO and CPCM-X implicit solvation:
   * M. Stahn, S. Ehlert, S. Grimme, J. Phys. Chem. A,
     2023, XX, XXXX-XXXX. DOI: 10.1021/acs.jpca.3c04382
   
   for DFT-D4:
   * E. Caldeweyher, C. Bannwarth and S. Grimme, J. Chem. Phys., 2017,
     147, 034112. DOI: 10.1063/1.4993215
   * E. Caldeweyher, S. Ehlert, A. Hansen, H. Neugebauer, S. Spicher,
     C. Bannwarth and S. Grimme, J. Chem. Phys., 2019, 150, 154122.
     DOI: 10.1063/1.5090222
   * E. Caldeweyher, J.-M. Mewes, S. Ehlert and S. Grimme, Phys. Chem. Chem. Phys.
     2020, 22, 8499-8512. DOI: 10.1039/D0CP00502A
   
   for sTDA-xTB:
   * S. Grimme and C. Bannwarth, J. Chem. Phys., 2016, 145, 054103.
     DOI: 10.1063/1.4959605
   
   in the mass-spec context:
   * V. Asgeirsson, C. Bauer and S. Grimme, Chem. Sci., 2017, 8, 4879.
     DOI: 10.1039/c7sc00601b
   * J. Koopman and S. Grimme, ACS Omega 2019, 4, 12, 15120-15133.
     DOI: 10.1021/acsomega.9b02011
   
   for metadynamics refer to:
   * S. Grimme, J. Chem. Theory Comput., 2019, 155, 2847-2862
     DOI: 10.1021/acs.jctc.9b00143
   
   for SPH calculations refer to:
   * S. Spicher and S. Grimme, J. Chem. Theory Comput., 2021, 17, 1701-1714
     DOI: 10.1021/acs.jctc.0c01306
   
   for ONIOM refer to:
   * C. Plett, A. Katbashev, S. Ehlert, S. Grimme, M. Bursch,
     Phys. Chem. Chem. Phys., 2023, 25, 17860-17868. DOI: 10.1039/D3CP02178E
   
   for DIPRO refer to:
   * J. Kohn, N. Gildemeister, S. Grimme, D. Fazzi, A. Hansen,
     J. Chem. Phys., 2023, just accepted.
   
   for PTB refer to:
   * S. Grimme, M. Mueller, A. Hansen, J. Chem. Phys., 2023, 158, 124111.
     DOI: 10.1063/5.0137838
   
   with help from (in alphabetical order)
   P. Atkinson, C. Bannwarth, F. Bohle, G. Brandenburg, E. Caldeweyher
   M. Checinski, S. Dohm, S. Ehlert, S. Ehrlich, I. Gerasimov, C. Hölzer
   A. Katbashev, J. Kohn, J. Koopman, C. Lavigne, S. Lehtola, F. März, M. Müller,
   F. Musil, H. Neugebauer, J. Pisarek, C. Plett, P. Pracht, F. Pultar,
   J. Seibert, P. Shushkov, S. Spicher, M. Stahn, M. Steiner, T. Strunk,
   J. Stückrath, T. Rose, and J. Unsleber
   
 * started run on 2026/09/17 at 00:40:26.563     
   ID    Z sym.   atoms
    1    6 C      1, 3-8
    2    8 O      2, 9
    3    1 H      10-17

           -------------------------------------------------
          |                Calculation Setup                |
           -------------------------------------------------

          program call               : C:\ORCA_6.1.1\xtb-6.7.1pre\xtb.exe optimized.xyz --gfn 2 --chrg 0 --uhf 0 --hess --json
          coordinate file            : optimized.xyz
          omp threads                :                     4


           -------------------------------------------------
          |                 G F N 2 - x T B                 |
           -------------------------------------------------

        Reference                      10.1021/acs.jctc.8b01176
      * Hamiltonian:
        H0-scaling (s, p, d)           1.850000    2.230000    2.230000
        zeta-weighting                 0.500000
      * Dispersion:
        s8                             2.700000
        a1                             0.520000
        a2                             5.000000
        s9                             5.000000
      * Repulsion:
        kExp                           1.500000    1.000000
        rExp                           1.000000
      * Coulomb:
        alpha                          2.000000
        third order                    shell-resolved
        anisotropic                    true
        a3                             3.000000
        a5                             4.000000
        cn-shift                       1.200000
        cn-exp                         4.000000
        max-rad                        5.000000


          ...................................................
          :                      SETUP                      :
          :.................................................:
          :  # basis functions                  44          :
          :  # atomic orbitals                  44          :
          :  # shells                           26          :
          :  # electrons                        48          :
          :  max. iterations                   250          :
          :  Hamiltonian                  GFN2-xTB          :
          :  restarted?                      false          :
          :  GBSA solvation                  false          :
          :  PC potential                    false          :
          :  electronic temp.          300.0000000     K    :
          :  accuracy                    1.0000000          :
          :  -> integral cutoff          0.2500000E+02      :
          :  -> integral neglect         0.1000000E-07      :
          :  -> SCF convergence          0.1000000E-05 Eh   :
          :  -> wf. convergence          0.1000000E-03 e    :
          :  Broyden damping             0.4000000          :
          :  net charge                          0          :
          :  unpaired electrons                  0          :
          ...................................................

 iter      E             dE          RMSdq      gap      omega  full diag
   1    -27.5341830 -0.275342E+02  0.461E+00    4.03       0.0  T
   2    -27.5560931 -0.219100E-01  0.271E+00    4.17       1.0  T
   3    -27.5535160  0.257711E-02  0.784E-01    4.03       1.0  T
   4    -27.5573763 -0.386033E-02  0.310E-01    4.22       1.0  T
   5    -27.5583443 -0.968022E-03  0.895E-02    4.17       1.0  T
   6    -27.5583521 -0.782099E-05  0.433E-02    4.17       1.0  T
   7    -27.5583644 -0.122687E-04  0.157E-02    4.17       1.5  T
   8    -27.5583651 -0.684094E-06  0.438E-03    4.17       5.5  T
   9    -27.5583651 -0.392091E-07  0.222E-03    4.17      10.9  T
  10    -27.5583652 -0.337648E-07  0.988E-04    4.17      24.6  T
  11    -27.5583652 -0.339054E-08  0.288E-04    4.17      84.3  T

   *** convergence criteria satisfied after 11 iterations ***

         #    Occupation            Energy/Eh            Energy/eV
      -------------------------------------------------------------
         1        2.0000           -0.7236019             -19.6902
       ...           ...                  ...                  ...
        18        2.0000           -0.4713254             -12.8254
        19        2.0000           -0.4694784             -12.7752
        20        2.0000           -0.4478404             -12.1864
        21        2.0000           -0.4370010             -11.8914
        22        2.0000           -0.4255599             -11.5801
        23        2.0000           -0.3946476             -10.7389
        24        2.0000           -0.3701677             -10.0728 (HOMO)
        25                         -0.2170077              -5.9051 (LUMO)
        26                         -0.2109039              -5.7390
        27                         -0.0850279              -2.3137
        28                          0.0109655               0.2984
        29                          0.0873435               2.3767
       ...                                ...                  ...
        44                          0.6700097              18.2319
      -------------------------------------------------------------
                  HL-Gap            0.1531600 Eh            4.1677 eV
             Fermi-level           -0.2935877 Eh           -7.9889 eV

 SCC (total)                   0 d,  0 h,  0 min,  0.007 sec
 SCC setup                      ...        0 min,  0.001 sec ( 14.285%)
 Dispersion                     ...        0 min,  0.000 sec (  0.000%)
 classical contributions        ...        0 min,  0.000 sec (  0.000%)
 integral evaluation            ...        0 min,  0.000 sec (  0.000%)
 iterations                     ...        0 min,  0.005 sec ( 71.427%)
 molecular gradient             ...        0 min,  0.001 sec ( 14.288%)
 printout                       ...        0 min,  0.000 sec (  0.000%)

         :::::::::::::::::::::::::::::::::::::::::::::::::::::
         ::                     SUMMARY                     ::
         :::::::::::::::::::::::::::::::::::::::::::::::::::::
         :: total energy             -27.187138220134 Eh    ::
         :: gradient norm              0.000144407604 Eh/a0 ::
         :: HOMO-LUMO gap              4.167696303097 eV    ::
         ::.................................................::
         :: SCC energy               -27.558334231414 Eh    ::
         :: -> isotropic ES            0.034738321200 Eh    ::
         :: -> anisotropic ES          0.002335186013 Eh    ::
         :: -> anisotropic XC          0.006355213691 Eh    ::
         :: -> dispersion             -0.012848030649 Eh    ::
         :: repulsion energy           0.371196011280 Eh    ::
         :: add. restraining           0.000000000000 Eh    ::
         :: total charge               0.000000000000 e     ::
         :::::::::::::::::::::::::::::::::::::::::::::::::::::

           ------------------------------------------------- 
          |                Numerical Hessian                |
           ------------------------------------------------- 
step length          :   0.00500
SCC accuracy         :   0.30000
Hessian scale factor :   1.00000
frozen atoms in %    :   0.00000    0
RMS gradient         :   0.00015
estimated CPU  time      0.04 min
estimated wall time      0.01 min

writing file <hessian>.

 projected vibrational frequencies (cm⁻¹)
eigval :       -0.00    -0.00    -0.00    -0.00     0.00     0.00
eigval :       81.53   168.15   214.60   229.95   288.75   324.02
eigval :      433.00   473.82   480.00   510.45   526.62   562.84
eigval :      669.01   777.45   779.56   822.29   861.90   894.67
eigval :      916.58  1045.06  1086.85  1112.59  1125.90  1155.25
eigval :     1171.94  1179.45  1204.23  1270.91  1281.76  1360.29
eigval :     1405.23  1451.83  1470.21  1484.61  1492.56  1592.96
eigval :     1598.27  2934.88  2948.76  3025.05  3085.89  3095.47
eigval :     3104.68  3113.46  3489.73
           -------------------------------------------------
          |                Property Printout                |
           -------------------------------------------------

    * Orbital Energies and Occupations

         #    Occupation            Energy/Eh            Energy/eV
      -------------------------------------------------------------
         1        2.0000           -0.7236035             -19.6903
       ...           ...                  ...                  ...
        12        2.0000           -0.5310960             -14.4519
        13        2.0000           -0.5256013             -14.3023
        14        2.0000           -0.5168869             -14.0652
        15        2.0000           -0.4991962             -13.5838
        16        2.0000           -0.4893910             -13.3170
        17        2.0000           -0.4750086             -12.9256
        18        2.0000           -0.4713259             -12.8254
        19        2.0000           -0.4694789             -12.7752
        20        2.0000           -0.4478421             -12.1864
        21        2.0000           -0.4370029             -11.8915
        22        2.0000           -0.4255613             -11.5801
        23        2.0000           -0.3946494             -10.7390
        24        2.0000           -0.3701690             -10.0728 (HOMO)
        25                         -0.2170094              -5.9051 (LUMO)
        26                         -0.2109055              -5.7390
        27                         -0.0850295              -2.3138
        28                          0.0109653               0.2984
        29                          0.0873431               2.3767
        30                          0.1058090               2.8792
        31                          0.1171884               3.1889
        32                          0.1533730               4.1735
        33                          0.1645442               4.4775
        34                          0.1833924               4.9904
        35                          0.1887085               5.1350
       ...                                ...                  ...
        44                          0.6700081              18.2318
      -------------------------------------------------------------
                  HL-Gap            0.1531597 Eh            4.1677 eV
             Fermi-level           -0.2935892 Eh           -7.9890 eV

     #   Z          covCN         q      C6AA      α(0)
     1   6 C        3.643     0.042    20.214     6.464
     2   8 O        1.704    -0.292    18.849     5.862
     3   6 C        2.864     0.104    25.689     8.308
     4   6 C        2.917    -0.067    29.672     8.933
     5   6 C        2.921    -0.045    29.108     8.847
     6   6 C        2.919    -0.041    29.023     8.834
     7   6 C        2.919    -0.058    29.438     8.897
     8   6 C        2.846     0.127    25.217     8.230
     9   8 O        1.659    -0.388    20.617     6.130
    10   1 H        0.924     0.040     2.452     2.449
    11   1 H        0.925     0.058     2.227     2.334
    12   1 H        0.924     0.040     2.452     2.449
    13   1 H        0.926     0.037     2.494     2.470
    14   1 H        0.926     0.035     2.514     2.480
    15   1 H        0.926     0.039     2.467     2.456
    16   1 H        0.926     0.054     2.265     2.353
    17   1 H        0.805     0.316     0.675     1.291

 Mol. C6AA /au·bohr⁶  :       3212.338561
 Mol. C8AA /au·bohr⁸  :      75535.404586
 Mol. α(0) /au        :         88.785848


Wiberg/Mayer (AO) data.
largest (>0.10) Wiberg bond orders for each atom

 ---------------------------------------------------------------------------
     #   Z sym  total        # sym  WBO       # sym  WBO       # sym  WBO
 ---------------------------------------------------------------------------
     1   6 C    3.947 --     2 O    0.986    11 H    0.980    12 H    0.977
                            10 H    0.977
     2   8 O    2.199 --     3 C    1.026     1 C    0.986
     3   6 C    3.928 --     4 C    1.411     8 C    1.289     2 O    1.026
     4   6 C    3.987 --     5 C    1.412     3 C    1.411    13 H    0.966
     5   6 C    3.991 --     6 C    1.453     4 C    1.412    14 H    0.971
     6   6 C    3.992 --     5 C    1.453     7 C    1.423    15 H    0.971
     7   6 C    3.987 --     6 C    1.423     8 C    1.401    16 H    0.967
     8   6 C    3.943 --     7 C    1.401     3 C    1.289     9 O    1.080
     9   8 O    2.126 --     8 C    1.080    17 H    0.876
    10   1 H    0.998 --     1 C    0.977
    11   1 H    0.996 --     1 C    0.980
    12   1 H    0.998 --     1 C    0.977
    13   1 H    0.999 --     4 C    0.966
    14   1 H    0.999 --     5 C    0.971
    15   1 H    0.998 --     6 C    0.971
    16   1 H    0.996 --     7 C    0.967
    17   1 H    0.900 --     9 O    0.876
 ---------------------------------------------------------------------------

Topologies differ in total number of bonds
Writing topology from bond orders to xtbtopo.mol

molecular dipole:
                 x           y           z       tot (Debye)
 q only:       -0.572      -0.436       0.066
   full:       -0.874      -0.636       0.098       2.757
molecular quadrupole (traceless):
                xx          xy          yy          xz          yz          zz
 q only:        4.810      -1.234      -2.489      -0.276       0.078      -2.321
  q+dip:        6.045      -1.870      -2.431      -0.358       0.001      -3.614
   full:        5.484      -1.863      -3.396      -0.248       0.205      -2.088

           -------------------------------------------------
          |               Frequency Printout                |
           -------------------------------------------------
 projected vibrational frequencies (cm⁻¹)
eigval :       -0.00    -0.00    -0.00    -0.00     0.00     0.00
eigval :       81.53   168.15   214.60   229.95   288.75   324.02
eigval :      433.00   473.82   480.00   510.45   526.62   562.84
eigval :      669.01   777.45   779.56   822.29   861.90   894.67
eigval :      916.58  1045.06  1086.85  1112.59  1125.90  1155.25
eigval :     1171.94  1179.45  1204.23  1270.91  1281.76  1360.29
eigval :     1405.23  1451.83  1470.21  1484.61  1492.56  1592.96
eigval :     1598.27  2934.88  2948.76  3025.05  3085.89  3095.47
eigval :     3104.68  3113.46  3489.73
 reduced masses (amu)
   1: 11.12   2: 12.49   3: 11.33   4: 11.26   5: 11.84   6: 13.46   7:  9.89   8: 11.12
   9: 10.87  10:  4.07  11:  9.68  12: 11.70  13:  9.35  14: 12.87  15:  2.58  16: 11.07
  17: 10.45  18: 11.65  19: 11.81  20: 11.52  21:  3.33  22: 11.93  23:  3.27  24:  3.91
  25:  3.04  26: 11.12  27:  5.99  28:  8.06  29:  3.73  30:  5.72  31:  2.50  32:  4.68
  33:  7.04  34:  4.15  35: 10.38  36: 10.34  37:  2.58  38:  9.39  39:  1.55  40:  3.03
  41:  9.18  42: 11.52  43: 11.55  44:  1.95  45:  1.45  46:  1.69  47:  1.76  48:  1.83
  49:  1.87  50:  1.87  51:  1.86
 IR intensities (km·mol⁻¹)
   1:  0.44   2:  0.25   3:  0.03   4:  0.71   5:  0.22   6:  0.25   7:  3.42   8:  1.50
   9:  0.69  10:  0.19  11:  0.75  12:  4.25  13:  1.55  14:  2.06  15:173.60  16:  8.06
  17:  0.62  18:  2.52  19:  0.01  20: 42.22  21: 50.69  22: 16.89  23:  0.19  24:  3.69
  25:  0.26  26: 13.06  27:  2.76  28: 47.78  29:  2.37  30:  6.15  31: 65.90  32:143.56
  33:101.38  34: 23.69  35:227.59  36: 17.48  37:  0.67  38:  1.15  39:  5.04  40: 78.50
  41:182.37  42: 19.40  43: 25.96  44: 41.22  45: 30.33  46: 17.42  47:  4.62  48: 35.15
  49: 44.64  50: 16.89  51: 50.45
 Raman intensities (Ä⁴*amu⁻¹)
   1:  0.00   2:  0.00   3:  0.00   4:  0.00   5:  0.00   6:  0.00   7:  0.00   8:  0.00
   9:  0.00  10:  0.00  11:  0.00  12:  0.00  13:  0.00  14:  0.00  15:  0.00  16:  0.00
  17:  0.00  18:  0.00  19:  0.00  20:  0.00  21:  0.00  22:  0.00  23:  0.00  24:  0.00
  25:  0.00  26:  0.00  27:  0.00  28:  0.00  29:  0.00  30:  0.00  31:  0.00  32:  0.00
  33:  0.00  34:  0.00  35:  0.00  36:  0.00  37:  0.00  38:  0.00  39:  0.00  40:  0.00
  41:  0.00  42:  0.00  43:  0.00  44:  0.00  45:  0.00  46:  0.00  47:  0.00  48:  0.00
  49:  0.00  50:  0.00  51:  0.00
 output can be read by thermo (or use thermo option).
 writing <g98.out> molden fake output.
 recommended (thermochemical) frequency scaling factor: 1.0
           -------------------------------------------------
          |             Thermodynamic Functions             |
           -------------------------------------------------

Molecule has the following symmetry elements: (sigma) 
It seems to be the Cs point group
cs  symmetry found (for desy threshold:  0.10E+00) used in thermo

          ...................................................
          :                      SETUP                      :
          :.................................................:
          :  # frequencies                          45      :
          :  # imaginary freq.                       0      :
          :  linear?                             false      :
          :  only rotor calc.                    false      :
          :  symmetry                               cs      :
          :  rotational number                       1      :
          :  scaling factor                  1.0000000      :
          :  rotor cutoff                   50.0000000 cm⁻¹ :
          :  imag. cutoff                  -20.0000000 cm⁻¹ :
          :.................................................:

    mode    ω/cm⁻¹     T·S(HO)/kcal·mol⁻¹    T·S(FR)/kcal·mol⁻¹   T·S(vib)
   ------------------------------------------------------------------------
       1     81.53    -1.14901 ( 87.61%)    -0.91154 ( 12.39%)    -1.11958
       2    168.15    -0.73226 ( 99.22%)    -0.69716 (  0.78%)    -0.73199
       3    214.60    -0.59755 ( 99.71%)    -0.62493 (  0.29%)    -0.59763
       4    229.95    -0.56033 ( 99.78%)    -0.60448 (  0.22%)    -0.56043
       5    288.75    -0.44164 ( 99.91%)    -0.53703 (  0.09%)    -0.44173
   ------------------------------------------------------------------------

   temp. (K)  partition function   enthalpy   heat capacity  entropy
                                   cal/mol     cal/K/mol   cal/K/mol   J/K/mol
 298.15  VIB   46.8                 3394.297     25.607     18.928
         ROT  0.432E+06              888.752      2.981     28.766
         INT  0.202E+08             4283.049     28.588     47.694
         TR   0.134E+28             1481.254      4.968     40.344
         TOT                        5764.3033    33.5562    88.0382   368.3517

       T/K    H(0)-H(T)+PV         H(T)/Eh          T*S/Eh         G(T)/Eh
   ------------------------------------------------------------------------
    298.15    0.918600E-02    0.142010E+00    0.418298E-01    0.100180E+00
   ------------------------------------------------------------------------

         :::::::::::::::::::::::::::::::::::::::::::::::::::::
         ::                  THERMODYNAMIC                  ::
         :::::::::::::::::::::::::::::::::::::::::::::::::::::
         :: total free energy         -27.086958014499 Eh   ::
         ::.................................................::
         :: total energy              -27.187138220281 Eh   ::
         :: zero point energy           0.132823979551 Eh   ::
         :: G(RRHO) w/o ZPVE           -0.032643773769 Eh   ::
         :: G(RRHO) contrib.            0.100180205782 Eh   ::
         :::::::::::::::::::::::::::::::::::::::::::::::::::::

           -------------------------------------------------
          | TOTAL ENERGY              -27.187138220281 Eh   |
          | TOTAL ENTHALPY            -27.045128238770 Eh   |
          | TOTAL FREE ENERGY         -27.086958014499 Eh   |
          | GRADIENT NORM               0.000145987746 Eh/α |
          | HOMO-LUMO GAP               4.167686565749 eV   |
           -------------------------------------------------

------------------------------------------------------------------------
 * finished run on 2026/09/17 at 00:40:26.842     
------------------------------------------------------------------------
 total:
 * wall-time:     0 d,  0 h,  0 min,  0.277 sec
 *  cpu-time:     0 d,  0 h,  0 min,  0.969 sec
 * ratio c/w:     3.497 speedup
 SCF:
 * wall-time:     0 d,  0 h,  0 min,  0.008 sec
 *  cpu-time:     0 d,  0 h,  0 min,  0.031 sec
 * ratio c/w:     3.906 speedup
 analytical hessian:
 * wall-time:     0 d,  0 h,  0 min,  0.207 sec
 *  cpu-time:     0 d,  0 h,  0 min,  0.781 sec
 * ratio c/w:     3.774 speedup

