      -----------------------------------------------------------      
     |                   =====================                   |     
     |                           x T B                           |     
     |                   =====================                   |     
     |                         S. Grimme                         |     
     |          Mulliken Center for Theoretical Chemistry        |     
     |                    University of Bonn                     |     
      -----------------------------------------------------------      

   * xtb version 6.7.1pre (5071a88) compiled by 'Marcel@Raven' on 2024-07-23

   xtb is free software: you can redistribute it and/or modify it under
   the terms of the GNU Lesser General Public License as published by
   the Free Software Foundation, either version 3 of the License, or
   (at your option) any later version.
   
   xtb is distributed in the hope that it will be useful,
   but WITHOUT ANY WARRANTY; without even the implied warranty of
   MERCHANTABILITY or FITNESS FOR A PARTICULAR PURPOSE.  See the
   GNU Lesser General Public License for more details.
   
   Cite this work as:
   * C. Bannwarth, E. Caldeweyher, S. Ehlert, A. Hansen, P. Pracht,
     J. Seibert, S. Spicher, S. Grimme, WIREs Comput. Mol. Sci., 2020, 11,
     e01493. DOI: 10.1002/wcms.1493
   
   for GFN2-xTB:
   * C. Bannwarth, S. Ehlert and S. Grimme., J. Chem. Theory Comput., 2019,
     15, 1652-1671. DOI: 10.1021/acs.jctc.8b01176
   for GFN1-xTB:
   * S. Grimme, C. Bannwarth, P. Shushkov, J. Chem. Theory Comput., 2017,
     13, 1989-2009. DOI: 10.1021/acs.jctc.7b00118
   for GFN0-xTB:
   * P. Pracht, E. Caldeweyher, S. Ehlert, S. Grimme, ChemRxiv, 2019, preprint.
     DOI: 10.26434/chemrxiv.8326202.v1
   for GFN-FF:
   * S. Spicher and S. Grimme, Angew. Chem. Int. Ed., 2020, 59, 15665-15673.
     DOI: 10.1002/anie.202004239
   
   for ALPB and GBSA implicit solvation:
   * S. Ehlert, M. Stahn, S. Spicher, S. Grimme, J. Chem. Theory Comput.,
     2021, 17, 4250-4261. DOI: 10.1021/acs.jctc.1c00471
   
   for ddCOSMO and CPCM-X implicit solvation:
   * M. Stahn, S. Ehlert, S. Grimme, J. Phys. Chem. A,
     2023, XX, XXXX-XXXX. DOI: 10.1021/acs.jpca.3c04382
   
   for DFT-D4:
   * E. Caldeweyher, C. Bannwarth and S. Grimme, J. Chem. Phys., 2017,
     147, 034112. DOI: 10.1063/1.4993215
   * E. Caldeweyher, S. Ehlert, A. Hansen, H. Neugebauer, S. Spicher,
     C. Bannwarth and S. Grimme, J. Chem. Phys., 2019, 150, 154122.
     DOI: 10.1063/1.5090222
   * E. Caldeweyher, J.-M. Mewes, S. Ehlert and S. Grimme, Phys. Chem. Chem. Phys.
     2020, 22, 8499-8512. DOI: 10.1039/D0CP00502A
   
   for sTDA-xTB:
   * S. Grimme and C. Bannwarth, J. Chem. Phys., 2016, 145, 054103.
     DOI: 10.1063/1.4959605
   
   in the mass-spec context:
   * V. Asgeirsson, C. Bauer and S. Grimme, Chem. Sci., 2017, 8, 4879.
     DOI: 10.1039/c7sc00601b
   * J. Koopman and S. Grimme, ACS Omega 2019, 4, 12, 15120-15133.
     DOI: 10.1021/acsomega.9b02011
   
   for metadynamics refer to:
   * S. Grimme, J. Chem. Theory Comput., 2019, 155, 2847-2862
     DOI: 10.1021/acs.jctc.9b00143
   
   for SPH calculations refer to:
   * S. Spicher and S. Grimme, J. Chem. Theory Comput., 2021, 17, 1701-1714
     DOI: 10.1021/acs.jctc.0c01306
   
   for ONIOM refer to:
   * C. Plett, A. Katbashev, S. Ehlert, S. Grimme, M. Bursch,
     Phys. Chem. Chem. Phys., 2023, 25, 17860-17868. DOI: 10.1039/D3CP02178E
   
   for DIPRO refer to:
   * J. Kohn, N. Gildemeister, S. Grimme, D. Fazzi, A. Hansen,
     J. Chem. Phys., 2023, just accepted.
   
   for PTB refer to:
   * S. Grimme, M. Mueller, A. Hansen, J. Chem. Phys., 2023, 158, 124111.
     DOI: 10.1063/5.0137838
   
   with help from (in alphabetical order)
   P. Atkinson, C. Bannwarth, F. Bohle, G. Brandenburg, E. Caldeweyher
   M. Checinski, S. Dohm, S. Ehlert, S. Ehrlich, I. Gerasimov, C. Hölzer
   A. Katbashev, J. Kohn, J. Koopman, C. Lavigne, S. Lehtola, F. März, M. Müller,
   F. Musil, H. Neugebauer, J. Pisarek, C. Plett, P. Pracht, F. Pultar,
   J. Seibert, P. Shushkov, S. Spicher, M. Stahn, M. Steiner, T. Strunk,
   J. Stückrath, T. Rose, and J. Unsleber
   
 * started run on 2026/09/17 at 00:40:19.634     
   ID    Z sym.   atoms
    1    6 C      1-5
    2    8 O      6-10
    3    1 H      11-20

           -------------------------------------------------
          |                Calculation Setup                |
           -------------------------------------------------

          program call               : C:\ORCA_6.1.1\xtb-6.7.1pre\xtb.exe input.xyz --gfn 2 --chrg 0 --uhf 0 --opt tight --json
          coordinate file            : input.xyz
          omp threads                :                     4


           -------------------------------------------------
          |                 G F N 2 - x T B                 |
           -------------------------------------------------

        Reference                      10.1021/acs.jctc.8b01176
      * Hamiltonian:
        H0-scaling (s, p, d)           1.850000    2.230000    2.230000
        zeta-weighting                 0.500000
      * Dispersion:
        s8                             2.700000
        a1                             0.520000
        a2                             5.000000
        s9                             5.000000
      * Repulsion:
        kExp                           1.500000    1.000000
        rExp                           1.000000
      * Coulomb:
        alpha                          2.000000
        third order                    shell-resolved
        anisotropic                    true
        a3                             3.000000
        a5                             4.000000
        cn-shift                       1.200000
        cn-exp                         4.000000
        max-rad                        5.000000


          ...................................................
          :                      SETUP                      :
          :.................................................:
          :  # basis functions                  50          :
          :  # atomic orbitals                  50          :
          :  # shells                           30          :
          :  # electrons                        60          :
          :  max. iterations                   250          :
          :  Hamiltonian                  GFN2-xTB          :
          :  restarted?                      false          :
          :  GBSA solvation                  false          :
          :  PC potential                    false          :
          :  electronic temp.          300.0000000     K    :
          :  accuracy                    1.0000000          :
          :  -> integral cutoff          0.2500000E+02      :
          :  -> integral neglect         0.1000000E-07      :
          :  -> SCF convergence          0.1000000E-05 Eh   :
          :  -> wf. convergence          0.1000000E-03 e    :
          :  Broyden damping             0.4000000          :
          :  net charge                          0          :
          :  unpaired electrons                  0          :
          ...................................................

 iter      E             dE          RMSdq      gap      omega  full diag
   1    -36.3334383 -0.363334E+02  0.468E+00   10.19       0.0  T
   2    -36.3708539 -0.374156E-01  0.252E+00   10.03       1.0  T
   3    -36.3718424 -0.988471E-03  0.832E-01   10.16       1.0  T
   4    -36.3730000 -0.115754E-02  0.149E-01   10.16       1.0  T
   5    -36.3730571 -0.571325E-04  0.625E-02   10.17       1.0  T
   6    -36.3730674 -0.102637E-04  0.195E-02   10.17       1.1  T
   7    -36.3730681 -0.751256E-06  0.737E-03   10.17       3.0  T
   8    -36.3730685 -0.402556E-06  0.200E-03   10.17      11.2  T
   9    -36.3730685 -0.414768E-08  0.808E-04   10.17      27.7  T
  10    -36.3730685 -0.404645E-08  0.311E-04   10.17      71.9  T

   *** convergence criteria satisfied after 10 iterations ***

         #    Occupation            Energy/Eh            Energy/eV
      -------------------------------------------------------------
         1        2.0000           -0.7299198             -19.8621
       ...           ...                  ...                  ...
        24        2.0000           -0.4744251             -12.9098
        25        2.0000           -0.4707823             -12.8106
        26        2.0000           -0.4540879             -12.3564
        27        2.0000           -0.4481924             -12.1959
        28        2.0000           -0.4294095             -11.6848
        29        2.0000           -0.4216195             -11.4729
        30        2.0000           -0.4199682             -11.4279 (HOMO)
        31                         -0.0461529              -1.2559 (LUMO)
        32                         -0.0273102              -0.7431
        33                         -0.0018881              -0.0514
        34                          0.0340186               0.9257
        35                          0.0427883               1.1643
       ...                                ...                  ...
        50                          0.2560042               6.9662
      -------------------------------------------------------------
                  HL-Gap            0.3738152 Eh           10.1720 eV
             Fermi-level           -0.2330606 Eh           -6.3419 eV

 SCC (total)                   0 d,  0 h,  0 min,  0.012 sec
 SCC setup                      ...        0 min,  0.000 sec (  0.000%)
 Dispersion                     ...        0 min,  0.000 sec (  0.000%)
 classical contributions        ...        0 min,  0.000 sec (  0.000%)
 integral evaluation            ...        0 min,  0.001 sec (  8.335%)
 iterations                     ...        0 min,  0.009 sec ( 74.998%)
 molecular gradient             ...        0 min,  0.001 sec (  8.335%)
 printout                       ...        0 min,  0.001 sec (  8.333%)

         :::::::::::::::::::::::::::::::::::::::::::::::::::::
         ::                     SUMMARY                     ::
         :::::::::::::::::::::::::::::::::::::::::::::::::::::
         :: total energy             -36.129953727836 Eh    ::
         :: gradient norm              0.059462036338 Eh/a0 ::
         :: HOMO-LUMO gap             10.172030559065 eV    ::
         ::.................................................::
         :: SCC energy               -36.372998097065 Eh    ::
         :: -> isotropic ES            0.114663163593 Eh    ::
         :: -> anisotropic ES         -0.004698963876 Eh    ::
         :: -> anisotropic XC         -0.007038099943 Eh    ::
         :: -> dispersion             -0.014467198637 Eh    ::
         :: repulsion energy           0.243044369229 Eh    ::
         :: add. restraining           0.000000000000 Eh    ::
         :: total charge               0.000000000000 e     ::
         :::::::::::::::::::::::::::::::::::::::::::::::::::::

      ----------------------------------------------------------- 
     |                   =====================                   |
     |                        A N C O P T                        |
     |                   =====================                   |
     |               Approximate Normal Coordinate               |
     |                Rational Function Optimizer                |
      ----------------------------------------------------------- 
      ----------------------------------------------------------- 
     |                   =====================                   |
     |                        A N C O P T                        |
     |                   =====================                   |
     |               Approximate Normal Coordinate               |
     |                Rational Function Optimizer                |
      ----------------------------------------------------------- 

          ...................................................
          :                      SETUP                      :
          :.................................................:
          :   optimization level             tight          :
          :   max. optcycles                   200          :
          :   ANC micro-cycles                  20          :
          :   degrees of freedom                54          :
          :.................................................:
          :   RF solver                   davidson          :
          :   write xtbopt.log                true          :
          :   linear?                        false          :
          :   energy convergence         0.1000000E-05 Eh   :
          :   grad. convergence          0.8000000E-03 Eh/α :
          :   maxmium RF displ.          1.0000000          :
          :   Hlow (freq-cutoff)         0.1000000E-01      :
          :   Hmax (freq-cutoff)         5.0000000          :
          :   S6 in model hess.         20.0000000          :
          ...................................................

generating ANC from exact Hessian ...
Using Lindh-Hessian (1995)
 Shifting diagonal of input Hessian by   5.159663716693221E-003
 Lowest  eigenvalues of input Hessian
    0.000000    0.000000    0.000000    0.000000    0.000000    0.000000
    0.010000    0.010455    0.017904    0.019804    0.020946    0.022175
    0.027817    0.029374    0.033220    0.034967    0.038207    0.039795
 Highest eigenvalues
    1.275318    1.375340    1.403466    1.425620    1.436783    1.553693
 

........................................................................
.............................. CYCLE    1 ..............................
........................................................................

 iter      E             dE          RMSdq      gap      omega  full diag
   1    -36.3730685 -0.363731E+02  0.101E-04   10.17       0.0  T
   2    -36.3730685 -0.457447E-10  0.530E-05   10.17     421.5  T
   3    -36.3730685 -0.407852E-11  0.304E-05   10.17     735.1  T
     SCC iter.                  ...        0 min,  0.001 sec
     gradient                   ...        0 min,  0.001 sec
 * total energy  :   -36.1299537 Eh     change       -0.8897345E-09 Eh
   gradient norm :     0.0594603 Eh/α   predicted     0.0000000E+00 (-100.00%)
   displ. norm   :     0.2409728 α      lambda       -0.6499391E-02
   maximum displ.:     0.1077980 α      in ANC's #13, #22, #7, ...

........................................................................
.............................. CYCLE    2 ..............................
........................................................................

 iter      E             dE          RMSdq      gap      omega  full diag
   1    -36.3852622 -0.363853E+02  0.201E-01   10.45       0.0  T
   2    -36.3852779 -0.157509E-04  0.118E-01   10.45       1.0  T
   3    -36.3852781 -0.149606E-06  0.164E-02   10.46       1.4  T
   4    -36.3852803 -0.220943E-05  0.455E-03   10.46       4.9  T
   5    -36.3852803 -0.388820E-07  0.190E-03   10.46      11.8  T
   6    -36.3852803 -0.797388E-08  0.822E-04   10.46      27.2  T
   7    -36.3852803 -0.126010E-08  0.147E-04   10.46     152.3  T
     SCC iter.                  ...        0 min,  0.004 sec
     gradient                   ...        0 min,  0.001 sec
 * total energy  :   -36.1345808 Eh     change       -0.4627093E-02 Eh
   gradient norm :     0.0333678 Eh/α   predicted    -0.3438641E-02 ( -25.68%)
   displ. norm   :     0.1925149 α      lambda       -0.2640069E-02
   maximum displ.:     0.0948786 α      in ANC's #13, #22, #7, ...

........................................................................
.............................. CYCLE    3 ..............................
........................................................................

 iter      E             dE          RMSdq      gap      omega  full diag
   1    -36.3917687 -0.363918E+02  0.153E-01   10.71       0.0  T
   2    -36.3917819 -0.132262E-04  0.899E-02   10.71       1.0  T
   3    -36.3917821 -0.212803E-06  0.162E-02   10.71       1.4  T
   4    -36.3917839 -0.177315E-05  0.448E-03   10.71       5.0  T
   5    -36.3917840 -0.547960E-07  0.151E-03   10.71      14.8  T
   6    -36.3917840 -0.559354E-08  0.777E-04   10.71      28.8  T
   7    -36.3917840 -0.760473E-09  0.126E-04   10.71     177.5  T
     SCC iter.                  ...        0 min,  0.004 sec
     gradient                   ...        0 min,  0.001 sec
 * total energy  :   -36.1360587 Eh     change       -0.1477841E-02 Eh
   gradient norm :     0.0079581 Eh/α   predicted    -0.1369077E-02 (  -7.36%)
   displ. norm   :     0.0663232 α      lambda       -0.1897260E-03
   maximum displ.:     0.0262228 α      in ANC's #6, #7, #13, ...

........................................................................
.............................. CYCLE    4 ..............................
........................................................................

 iter      E             dE          RMSdq      gap      omega  full diag
   1    -36.3915031 -0.363915E+02  0.324E-02   10.74       0.0  T
   2    -36.3915036 -0.482562E-06  0.196E-02   10.74       1.1  T
   3    -36.3915037 -0.512211E-07  0.303E-03   10.74       7.4  T
   4    -36.3915037 -0.652504E-07  0.101E-03   10.74      22.1  T
   5    -36.3915037 -0.304185E-08  0.361E-04   10.74      61.9  T
   6    -36.3915037 -0.168981E-09  0.160E-04   10.74     140.1  T
     SCC iter.                  ...        0 min,  0.002 sec
     gradient                   ...        0 min,  0.002 sec
 * total energy  :   -36.1361952 Eh     change       -0.1365081E-03 Eh
   gradient norm :     0.0048976 Eh/α   predicted    -0.9528580E-04 ( -30.20%)
   displ. norm   :     0.0831565 α      lambda       -0.1316792E-03
   maximum displ.:     0.0328503 α      in ANC's #6, #1, #2, ...

........................................................................
.............................. CYCLE    5 ..............................
........................................................................

 iter      E             dE          RMSdq      gap      omega  full diag
   1    -36.3908055 -0.363908E+02  0.373E-02   10.74       0.0  T
   2    -36.3908059 -0.408329E-06  0.230E-02   10.74       1.0  T
   3    -36.3908060 -0.886616E-07  0.247E-03   10.74       9.0  T
   4    -36.3908061 -0.498859E-07  0.108E-03   10.74      20.6  T
   5    -36.3908061 -0.148502E-08  0.364E-04   10.74      61.5  T
   6    -36.3908061 -0.176684E-09  0.117E-04   10.74     190.5  T
     SCC iter.                  ...        0 min,  0.002 sec
     gradient                   ...        0 min,  0.002 sec
 * total energy  :   -36.1362836 Eh     change       -0.8847811E-04 Eh
   gradient norm :     0.0056721 Eh/α   predicted    -0.6633286E-04 ( -25.03%)
   displ. norm   :     0.0720225 α      lambda       -0.7252363E-04
   maximum displ.:     0.0287039 α      in ANC's #2, #1, #12, ...

........................................................................
.............................. CYCLE    6 ..............................
........................................................................

 iter      E             dE          RMSdq      gap      omega  full diag
   1    -36.3906104 -0.363906E+02  0.298E-02   10.72       0.0  T
   2    -36.3906107 -0.343473E-06  0.184E-02   10.72       1.2  T
   3    -36.3906108 -0.595924E-07  0.216E-03   10.72      10.4  T
   4    -36.3906108 -0.328895E-07  0.837E-04   10.72      26.7  T
   5    -36.3906108 -0.916302E-09  0.281E-04   10.72      79.5  T
     SCC iter.                  ...        0 min,  0.003 sec
     gradient                   ...        0 min,  0.002 sec
 * total energy  :   -36.1363393 Eh     change       -0.5561146E-04 Eh
   gradient norm :     0.0054802 Eh/α   predicted    -0.3645868E-04 ( -34.44%)
   displ. norm   :     0.1010727 α      lambda       -0.8890247E-04
   maximum displ.:     0.0455117 α      in ANC's #1, #9, #12, ...

........................................................................
.............................. CYCLE    7 ..............................
........................................................................

 iter      E             dE          RMSdq      gap      omega  full diag
   1    -36.3907658 -0.363908E+02  0.410E-02   10.70       0.0  T
   2    -36.3907665 -0.717822E-06  0.252E-02   10.70       1.0  T
   3    -36.3907666 -0.117399E-06  0.309E-03   10.70       7.2  T
   4    -36.3907667 -0.537662E-07  0.115E-03   10.70      19.5  T
   5    -36.3907667 -0.228802E-08  0.400E-04   10.70      55.8  T
   6    -36.3907667 -0.115328E-09  0.135E-04   10.70     166.2  T
     SCC iter.                  ...        0 min,  0.002 sec
     gradient                   ...        0 min,  0.001 sec
 * total energy  :   -36.1364017 Eh     change       -0.6243872E-04 Eh
   gradient norm :     0.0041974 Eh/α   predicted    -0.4491632E-04 ( -28.06%)
   displ. norm   :     0.0725408 α      lambda       -0.5126002E-04
   maximum displ.:     0.0396789 α      in ANC's #1, #9, #12, ...

........................................................................
.............................. CYCLE    8 ..............................
........................................................................

 iter      E             dE          RMSdq      gap      omega  full diag
   1    -36.3913609 -0.363914E+02  0.297E-02   10.69       0.0  T
   2    -36.3913613 -0.373738E-06  0.179E-02   10.69       1.2  T
   3    -36.3913613 -0.520371E-07  0.225E-03   10.69       9.9  T
   4    -36.3913614 -0.260046E-07  0.819E-04   10.69      27.3  T
   5    -36.3913614 -0.207856E-08  0.308E-04   10.69      72.5  T
     SCC iter.                  ...        0 min,  0.002 sec
     gradient                   ...        0 min,  0.001 sec
 * total energy  :   -36.1364363 Eh     change       -0.3460634E-04 Eh
   gradient norm :     0.0017757 Eh/α   predicted    -0.2576783E-04 ( -25.54%)
   displ. norm   :     0.1137657 α      lambda       -0.2502938E-04
   maximum displ.:     0.0726287 α      in ANC's #1, #12, #9, ...

........................................................................
.............................. CYCLE    9 ..............................
........................................................................

 iter      E             dE          RMSdq      gap      omega  full diag
   1    -36.3911761 -0.363912E+02  0.425E-02   10.67       0.0  T
   2    -36.3911766 -0.544723E-06  0.260E-02   10.67       1.0  T
   3    -36.3911767 -0.100974E-06  0.313E-03   10.67       7.2  T
   4    -36.3911768 -0.795427E-07  0.131E-03   10.67      17.0  T
   5    -36.3911768 -0.247687E-08  0.460E-04   10.67      48.6  T
   6    -36.3911768 -0.228162E-09  0.132E-04   10.67     169.6  T
     SCC iter.                  ...        0 min,  0.002 sec
     gradient                   ...        0 min,  0.001 sec
 * total energy  :   -36.1364422 Eh     change       -0.5939378E-05 Eh
   gradient norm :     0.0054907 Eh/α   predicted    -0.1260616E-04 ( 112.25%)
   displ. norm   :     0.0249814 α      lambda       -0.3784061E-04
   maximum displ.:     0.0148768 α      in ANC's #2, #1, #6, ...

........................................................................
.............................. CYCLE   10 ..............................
........................................................................

 iter      E             dE          RMSdq      gap      omega  full diag
   1    -36.3919857 -0.363920E+02  0.132E-02   10.67       0.0  T
   2    -36.3919858 -0.133338E-06  0.771E-03   10.67       2.9  T
   3    -36.3919858 -0.295736E-07  0.152E-03   10.67      14.7  T
   4    -36.3919858 -0.940308E-08  0.681E-04   10.67      32.8  T
   5    -36.3919858 -0.118955E-08  0.300E-04   10.67      74.6  T
     SCC iter.                  ...        0 min,  0.002 sec
     gradient                   ...        0 min,  0.001 sec
 * total energy  :   -36.1364601 Eh     change       -0.1788535E-04 Eh
   gradient norm :     0.0016538 Eh/α   predicted    -0.1893607E-04 (   5.87%)
   displ. norm   :     0.0218376 α      lambda       -0.7550250E-05
   maximum displ.:     0.0164970 α      in ANC's #2, #6, #1, ...

........................................................................
.............................. CYCLE   11 ..............................
........................................................................

 iter      E             dE          RMSdq      gap      omega  full diag
   1    -36.3916061 -0.363916E+02  0.115E-02   10.67       0.0  T
   2    -36.3916062 -0.257405E-07  0.686E-03   10.67       3.3  T
   3    -36.3916062 -0.247758E-08  0.653E-04   10.67      34.2  T
   4    -36.3916062 -0.409479E-08  0.256E-04   10.67      87.3  T
     SCC iter.                  ...        0 min,  0.002 sec
     gradient                   ...        0 min,  0.002 sec
 * total energy  :   -36.1364680 Eh     change       -0.7853532E-05 Eh
   gradient norm :     0.0004937 Eh/α   predicted    -0.3789698E-05 ( -51.75%)
   displ. norm   :     0.0427859 α      lambda       -0.4890468E-05
   maximum displ.:     0.0269705 α      in ANC's #1, #2, #6, ...

........................................................................
.............................. CYCLE   12 ..............................
........................................................................

 iter      E             dE          RMSdq      gap      omega  full diag
   1    -36.3914376 -0.363914E+02  0.162E-02   10.67       0.0  T
   2    -36.3914377 -0.633498E-07  0.991E-03   10.67       2.3  T
   3    -36.3914377 -0.639032E-08  0.113E-03   10.67      19.7  T
   4    -36.3914377 -0.135619E-07  0.424E-04   10.67      52.7  T
   5    -36.3914377 -0.192820E-09  0.145E-04   10.67     154.5  T
     SCC iter.                  ...        0 min,  0.001 sec
     gradient                   ...        0 min,  0.002 sec
 * total energy  :   -36.1364730 Eh     change       -0.5047983E-05 Eh
   gradient norm :     0.0005056 Eh/α   predicted    -0.2451059E-05 ( -51.44%)
   displ. norm   :     0.0331269 α      lambda       -0.1942448E-05
   maximum displ.:     0.0202171 α      in ANC's #1, #2, #6, ...

........................................................................
.............................. CYCLE   13 ..............................
........................................................................

 iter      E             dE          RMSdq      gap      omega  full diag
   1    -36.3914325 -0.363914E+02  0.125E-02   10.66       0.0  T
   2    -36.3914326 -0.522485E-07  0.765E-03   10.66       2.9  T
   3    -36.3914326 -0.573333E-08  0.968E-04   10.66      23.1  T
   4    -36.3914326 -0.880893E-08  0.345E-04   10.66      64.7  T
     SCC iter.                  ...        0 min,  0.002 sec
     gradient                   ...        0 min,  0.002 sec
 * total energy  :   -36.1364749 Eh     change       -0.1857234E-05 Eh
   gradient norm :     0.0004504 Eh/α   predicted    -0.9802206E-06 ( -47.22%)
   displ. norm   :     0.0121306 α      lambda       -0.5293524E-06
   maximum displ.:     0.0077425 α      in ANC's #2, #1, #6, ...

........................................................................
.............................. CYCLE   14 ..............................
........................................................................

 iter      E             dE          RMSdq      gap      omega  full diag
   1    -36.3915235 -0.363915E+02  0.515E-03   10.66       0.0  T
   2    -36.3915235 -0.692169E-08  0.316E-03   10.66       7.1  T
   3    -36.3915235 -0.183936E-08  0.295E-04   10.66      75.7  T
   4    -36.3915235 -0.510340E-09  0.131E-04   10.66     170.9  T
     SCC iter.                  ...        0 min,  0.001 sec
     gradient                   ...        0 min,  0.002 sec
 * total energy  :   -36.1364753 Eh     change       -0.4438299E-06 Eh
   gradient norm :     0.0001564 Eh/α   predicted    -0.2686537E-06 ( -39.47%)
   displ. norm   :     0.0053986 α      lambda       -0.1533840E-06
   maximum displ.:     0.0023004 α      in ANC's #10, #6, #12, ...

   *** GEOMETRY OPTIMIZATION CONVERGED AFTER 14 ITERATIONS ***

------------------------------------------------------------------------
 total energy gain   :        -0.0065216 Eh       -4.0924 kcal/mol
 total RMSD          :         0.1848999 a0        0.0978 Å
 total power (kW/mol):        -1.2230337 (step) -228.2995 (real)
------------------------------------------------------------------------

 ANCopt (total)                0 d,  0 h,  0 min,  0.075 sec
 optimizer setup                ...        0 min,  0.000 sec (  0.000%)
 model hessian                  ...        0 min,  0.010 sec ( 13.333%)
 ANC generation                 ...        0 min,  0.000 sec (  0.000%)
 coordinate transformation      ...        0 min,  0.000 sec (  0.000%)
 single point calculation       ...        0 min,  0.059 sec ( 78.667%)
 optimization log               ...        0 min,  0.002 sec (  2.667%)
 hessian update                 ...        0 min,  0.000 sec (  0.000%)
 rational function              ...        0 min,  0.000 sec (  0.000%)

================
 final structure:
================
20
 xtb: 6.7.1pre (5071a88)
C           -1.19871015533805       -0.15804709714043       -1.31587185989251
C           -1.21626212241094        0.86455539980608       -0.17573755095738
C           -0.35002595709992        0.34639070594507        0.98001328211076
C            1.04545756313109        0.00329122211604        0.45625900132117
C            0.91898015826632       -0.97612265556425       -0.72238464004846
O            0.11210973393098       -0.44917514611814       -1.74113831266134
O            2.18778457162965       -1.20307298385042       -1.24051398215023
O            1.78954835033682       -0.55644172286306        1.50923368307549
O           -0.30372942898545        1.33945942944224        1.97509157883287
O           -2.54403456805787        1.05576722562202        0.22992520920291
H           -1.72032423210158        0.23801796023969       -2.18681908661377
H           -1.70630680579798       -1.07162283354742       -0.97585062169599
H           -0.77982168212315        1.81330424726099       -0.52696719106507
H           -0.80355651619686       -0.57191355337702        1.38939169987874
H            1.53135744094594        0.91898124142348        0.08354548637183
H            0.47763185372820       -1.92675794495031       -0.34821816760666
H            2.08928350027186       -1.39947715827942       -2.17935706329097
H            2.60443621487662       -0.91195794265910        1.13466236032852
H            0.38389355706751        1.08404951068628        2.60182704614476
H           -2.51771047607319        1.56077409580768        1.05291012871532
 
 Bond Distances (Angstroems)
 ---------------------------
C1-C2=1.5316         C1-O6=1.4085         C1-H11=1.0897        C1-H12=1.0990        C2-C1=1.5316         C2-C3=1.5345         
C2-O10=1.4015        C2-H13=1.1018        C3-C2=1.5345         C3-C4=1.5295         C3-O9=1.4066         C3-H14=1.1030        
C4-C3=1.5295         C4-C5=1.5377         C4-O8=1.4056         C4-H15=1.1016        C5-C4=1.5377         C5-O6=1.4023         
C5-O7=1.3892         C5-H16=1.1129        O6-C1=1.4085         O6-C5=1.4023         O7-C5=1.3892         O7-H17=0.9642        
O8-C4=1.4056         O8-H18=0.9647        O9-C3=1.4066         O9-H19=0.9648        O10-C2=1.4015        O10-H20=0.9659       
H11-C1=1.0897        H12-C1=1.0990        H13-C2=1.1018        H14-C3=1.1030        H15-C4=1.1016        H16-C5=1.1129        
H17-O7=0.9642        H18-O8=0.9647        H19-O9=0.9648        H20-O10=0.9659       
 C  H  Rav=1.1013 sigma=0.0068  Rmin=1.0897  Rmax=1.1129     6
 C  C  Rav=1.5333 sigma=0.0031  Rmin=1.5295  Rmax=1.5377     4
 O  H  Rav=0.9649 sigma=0.0006  Rmin=0.9642  Rmax=0.9659     4
 O  C  Rav=1.4023 sigma=0.0063  Rmin=1.3892  Rmax=1.4085     6
 
 selected bond angles (degree)
 --------------------
O6-C1-C2=111.93                H11-C1-C2=110.29               H11-C1-O6=106.22               H12-C1-C2=108.63               
H12-C1-O6=110.57               H12-C1-H11=109.17              C3-C2-C1=109.19                O10-C2-C1=108.51               
O10-C2-C3=111.28               H13-C2-C1=109.46               H13-C2-C3=107.89               H13-C2-O10=110.49              
C4-C3-C2=109.44                O9-C3-C2=108.24                O9-C3-C4=111.75                H14-C3-C2=109.18               
H14-C3-C4=108.39               H14-C3-O9=109.80               C5-C4-C3=109.29                O8-C4-C3=108.41                
O8-C4-C5=111.35                H15-C4-C3=109.38               H15-C4-C5=107.84               H15-C4-O8=110.55               
O6-C5-C4=111.40                O7-C5-C4=108.35                O7-C5-O6=108.42                H16-C5-C4=108.60               
H16-C5-O6=109.70               H16-C5-O7=110.37               C5-O6-C1=113.19                H17-O7-C5=107.65               
H18-O8-C4=107.64               H19-O9-C3=107.22               H20-O10-C2=106.99              
 
 selected dihedral angles (degree)
 ---------------------------------
C3-C2-C1-O6=304.05            C3-C2-C1-H11=186.03           C3-C2-C1-H12= 66.42           O10-C2-C1-O6=182.60           
O10-C2-C1-H11= 64.58          O10-C2-C1-H12=304.97          H13-C2-C1-O6= 61.95           H13-C2-C1-H11=303.93          
H13-C2-C1-H12=184.33          C4-C3-C2-C1= 53.91            C4-C3-C2-O10=173.66           C4-C3-C2-H13=295.03           
O9-C3-C2-C1=175.93            O9-C3-C2-O10=295.68           O9-C3-C2-H13= 57.05           H14-C3-C2-C1=295.42           
H14-C3-C2-O10= 55.17          H14-C3-C2-H13=176.54          C5-C4-C3-C2=305.64            C5-C4-C3-O9=185.76            
C5-C4-C3-H14= 64.62           O8-C4-C3-C2=184.10            O8-C4-C3-O9= 64.22            O8-C4-C3-H14=303.09           
H15-C4-C3-C2= 63.49           H15-C4-C3-O9=303.61           H15-C4-C3-H14=182.48          O6-C5-C4-C3= 56.82            
O6-C5-C4-O8=176.56            O6-C5-C4-H15=298.00           O7-C5-C4-C3=175.99            O7-C5-C4-O8=295.73            
O7-C5-C4-H15= 57.18           H16-C5-C4-C3=295.90           H16-C5-C4-O8= 55.64           H16-C5-C4-H15=177.08          
C5-O6-C1-C2= 59.69            C5-O6-C1-H11=180.11           C5-O6-C1-H12=298.43           C1-O6-C5-C4=300.18            
C1-O6-C5-O7=181.04            C1-O6-C5-H16= 60.45           H17-O7-C5-C4=209.26           H17-O7-C5-O6=330.30           
H17-O7-C5-H16= 90.47          H18-O8-C4-C3=170.03           H18-O8-C4-C5= 49.77           H18-O8-C4-H15=289.92          
H19-O9-C3-C2=191.70           H19-O9-C3-C4=312.29           H19-O9-C3-H14= 72.60          H20-O10-C2-C1=169.00          
H20-O10-C2-C3= 48.84          H20-O10-C2-H13=289.00         
           -------------------------------------------------
          |                Final Singlepoint                |
           -------------------------------------------------

          ...................................................
          :                      SETUP                      :
          :.................................................:
          :  # basis functions                  50          :
          :  # atomic orbitals                  50          :
          :  # shells                           30          :
          :  # electrons                        60          :
          :  max. iterations                   250          :
          :  Hamiltonian                  GFN2-xTB          :
          :  restarted?                      false          :
          :  GBSA solvation                  false          :
          :  PC potential                    false          :
          :  electronic temp.          300.0000000     K    :
          :  accuracy                    1.0000000          :
          :  -> integral cutoff          0.2500000E+02      :
          :  -> integral neglect         0.1000000E-07      :
          :  -> SCF convergence          0.1000000E-05 Eh   :
          :  -> wf. convergence          0.1000000E-03 e    :
          :  Broyden damping             0.4000000          :
          :  net charge                          0          :
          :  unpaired electrons                  0          :
          ...................................................

 iter      E             dE          RMSdq      gap      omega  full diag
   1    -36.3915235 -0.363915E+02  0.518E-05   10.66       0.0  T
   2    -36.3915235 -0.215294E-11  0.315E-05   10.66     709.9  T
   3    -36.3915235 -0.270006E-12  0.805E-06   10.66    2778.9  T

   *** convergence criteria satisfied after 3 iterations ***

         #    Occupation            Energy/Eh            Energy/eV
      -------------------------------------------------------------
         1        2.0000           -0.7338368             -19.9687
       ...           ...                  ...                  ...
        24        2.0000           -0.4720401             -12.8449
        25        2.0000           -0.4696250             -12.7791
        26        2.0000           -0.4510070             -12.2725
        27        2.0000           -0.4477753             -12.1846
        28        2.0000           -0.4266855             -11.6107
        29        2.0000           -0.4195703             -11.4171
        30        2.0000           -0.4124384             -11.2230 (HOMO)
        31                         -0.0205520              -0.5592 (LUMO)
        32                         -0.0050335              -0.1370
        33                          0.0278980               0.7591
        34                          0.0493776               1.3436
        35                          0.0659772               1.7953
       ...                                ...                  ...
        50                          0.2795274               7.6063
      -------------------------------------------------------------
                  HL-Gap            0.3918864 Eh           10.6638 eV
             Fermi-level           -0.2164952 Eh           -5.8911 eV

 SCC (total)                   0 d,  0 h,  0 min,  0.004 sec
 SCC setup                      ...        0 min,  0.000 sec (  0.000%)
 Dispersion                     ...        0 min,  0.000 sec (  0.000%)
 classical contributions        ...        0 min,  0.000 sec (  0.000%)
 integral evaluation            ...        0 min,  0.002 sec ( 50.000%)
 iterations                     ...        0 min,  0.001 sec ( 24.997%)
 molecular gradient             ...        0 min,  0.001 sec ( 25.003%)
 printout                       ...        0 min,  0.000 sec (  0.000%)

         :::::::::::::::::::::::::::::::::::::::::::::::::::::
         ::                     SUMMARY                     ::
         :::::::::::::::::::::::::::::::::::::::::::::::::::::
         :: total energy             -36.136475332948 Eh    ::
         :: gradient norm              0.000156738659 Eh/a0 ::
         :: HOMO-LUMO gap             10.663770762690 eV    ::
         ::.................................................::
         :: SCC energy               -36.391454261547 Eh    ::
         :: -> isotropic ES            0.110852467284 Eh    ::
         :: -> anisotropic ES         -0.006019791055 Eh    ::
         :: -> anisotropic XC         -0.008730982531 Eh    ::
         :: -> dispersion             -0.014688785873 Eh    ::
         :: repulsion energy           0.254978928598 Eh    ::
         :: add. restraining           0.000000000000 Eh    ::
         :: total charge               0.000000000000 e     ::
         :::::::::::::::::::::::::::::::::::::::::::::::::::::

           -------------------------------------------------
          |                Property Printout                |
           -------------------------------------------------

    * Orbital Energies and Occupations

         #    Occupation            Energy/Eh            Energy/eV
      -------------------------------------------------------------
         1        2.0000           -0.7338368             -19.9687
       ...           ...                  ...                  ...
        18        2.0000           -0.5461675             -14.8620
        19        2.0000           -0.5329088             -14.5012
        20        2.0000           -0.5297788             -14.4160
        21        2.0000           -0.5154874             -14.0271
        22        2.0000           -0.5042005             -13.7200
        23        2.0000           -0.4964297             -13.5085
        24        2.0000           -0.4720401             -12.8449
        25        2.0000           -0.4696250             -12.7791
        26        2.0000           -0.4510070             -12.2725
        27        2.0000           -0.4477753             -12.1846
        28        2.0000           -0.4266855             -11.6107
        29        2.0000           -0.4195703             -11.4171
        30        2.0000           -0.4124384             -11.2230 (HOMO)
        31                         -0.0205520              -0.5592 (LUMO)
        32                         -0.0050335              -0.1370
        33                          0.0278980               0.7591
        34                          0.0493776               1.3436
        35                          0.0659772               1.7953
        36                          0.0800999               2.1796
        37                          0.0865724               2.3558
        38                          0.1003837               2.7316
        39                          0.1172103               3.1895
        40                          0.1312147               3.5705
        41                          0.1514499               4.1212
       ...                                ...                  ...
        50                          0.2795274               7.6063
      -------------------------------------------------------------
                  HL-Gap            0.3918864 Eh           10.6638 eV
             Fermi-level           -0.2164952 Eh           -5.8911 eV

     #   Z          covCN         q      C6AA      α(0)
     1   6 C        3.710     0.064    19.632     6.332
     2   6 C        3.727     0.098    19.056     6.232
     3   6 C        3.731     0.098    19.057     6.231
     4   6 C        3.727     0.087    19.228     6.260
     5   6 C        3.634     0.237    17.257     5.979
     6   8 O        1.701    -0.334    19.596     5.977
     7   8 O        1.658    -0.438    21.596     6.273
     8   8 O        1.656    -0.444    21.718     6.291
     9   8 O        1.656    -0.445    21.743     6.295
    10   8 O        1.657    -0.438    21.594     6.273
    11   1 H        0.925     0.080     1.982     2.202
    12   1 H        0.923     0.044     2.402     2.424
    13   1 H        0.923     0.039     2.468     2.457
    14   1 H        0.923     0.033     2.547     2.496
    15   1 H        0.923     0.040     2.447     2.446
    16   1 H        0.921     0.008     2.922     2.673
    17   1 H        0.805     0.324     0.652     1.268
    18   1 H        0.805     0.313     0.683     1.298
    19   1 H        0.805     0.315     0.678     1.294
    20   1 H        0.805     0.318     0.668     1.284

 Mol. C6AA /au·bohr⁶  :       3279.442239
 Mol. C8AA /au·bohr⁸  :      69537.147393
 Mol. α(0) /au        :         81.984705


Wiberg/Mayer (AO) data.
largest (>0.10) Wiberg bond orders for each atom

 ---------------------------------------------------------------------------
     #   Z sym  total        # sym  WBO       # sym  WBO       # sym  WBO
 ---------------------------------------------------------------------------
     1   6 C    3.942 --     2 C    0.980     6 O    0.977    11 H    0.967
                            12 H    0.965
     2   6 C    3.965 --    10 O    1.006     1 C    0.980     3 C    0.969
                            13 H    0.957
     3   6 C    3.962 --     9 O    0.998     4 C    0.972     2 C    0.969
                            14 H    0.956
     4   6 C    3.960 --     8 O    0.999     3 C    0.972    15 H    0.956
                             5 C    0.953
     5   6 C    3.931 --     7 O    1.008     6 O    0.972     4 C    0.953
                            16 H    0.942
     6   8 O    2.078 --     1 C    0.977     5 C    0.972
     7   8 O    1.969 --     5 C    1.008    17 H    0.874
     8   8 O    1.959 --     4 C    0.999    18 H    0.884
     9   8 O    1.957 --     3 C    0.998    19 H    0.883
    10   8 O    1.958 --     2 C    1.006    20 H    0.881
    11   1 H    0.993 --     1 C    0.967
    12   1 H    0.998 --     1 C    0.965
    13   1 H    0.999 --     2 C    0.957
    14   1 H    0.999 --     3 C    0.956
    15   1 H    0.998 --     4 C    0.956
    16   1 H    1.000 --     5 C    0.942
    17   1 H    0.894 --     7 O    0.874
    18   1 H    0.901 --     8 O    0.884
    19   1 H    0.901 --     9 O    0.883
    20   1 H    0.899 --    10 O    0.881
 ---------------------------------------------------------------------------

Topologies differ in total number of bonds
Writing topology from bond orders to xtbtopo.mol

molecular dipole:
                 x           y           z       tot (Debye)
 q only:        0.279      -0.215      -0.097
   full:        0.509      -0.400      -0.139       1.682
molecular quadrupole (traceless):
                xx          xy          yy          xz          yz          zz
 q only:       -1.405      -0.556      -0.192      -0.940       2.141       1.598
  q+dip:       -5.111       2.067       3.210      -1.699       1.558       1.901
   full:       -4.021       0.865       1.711      -1.576       2.322       2.310

           -------------------------------------------------
          |                Geometry Summary                 |
           -------------------------------------------------

      molecular mass/u    :      150.1301116
   center of mass at/Å    :        0.0653179       0.0244949       0.0161567
  moments of inertia/u·Å² :        0.2682939E+03   0.4218084E+03   0.6538889E+03
rotational constants/cm⁻¹ :        0.6283271E-01   0.3996514E-01   0.2578058E-01

 * 20 selected distances

     #   Z          #   Z                                           value/Å
     1   6 C        2   6 C                                       1.5316431
     2   6 C        3   6 C                                       1.5344772
     3   6 C        4   6 C                                       1.5295132
     4   6 C        5   6 C                                       1.5376766 (max)
     1   6 C        6   8 O                                       1.4084943
     5   6 C        6   8 O                                       1.4023455
     5   6 C        7   8 O                                       1.3891830
     4   6 C        8   8 O                                       1.4056060
     3   6 C        9   8 O                                       1.4065952
     2   6 C       10   8 O                                       1.4014650
     1   6 C       11   1 H                                       1.0897238
     1   6 C       12   1 H                                       1.0990403
     2   6 C       13   1 H                                       1.1018018
     3   6 C       14   1 H                                       1.1029794
     4   6 C       15   1 H                                       1.1015909
     5   6 C       16   1 H                                       1.1128776
     7   8 O       17   1 H                                       0.9642114 (min)
     8   8 O       18   1 H                                       0.9647476
     9   8 O       19   1 H                                       0.9648094
    10   8 O       20   1 H                                       0.9659344

 * 4 distinct bonds (by element types)

   Z      Z             #   av. dist./Å        max./Å        min./Å
   1 H    6 C           6     1.1013356     1.1128776     1.0897238
   6 C    6 C           4     1.5333275     1.5376766     1.5295132
   1 H    8 O           4     0.9649257     0.9659344     0.9642114
   6 C    8 O           6     1.4022815     1.4084943     1.3891830


optimized geometry written to: xtbopt.xyz


           -------------------------------------------------
          | TOTAL ENERGY              -36.136475332948 Eh   |
          | GRADIENT NORM               0.000156738659 Eh/α |
          | HOMO-LUMO GAP              10.663770762690 eV   |
           -------------------------------------------------

------------------------------------------------------------------------
 * finished run on 2026/09/17 at 00:40:19.780     
------------------------------------------------------------------------
 total:
 * wall-time:     0 d,  0 h,  0 min,  0.142 sec
 *  cpu-time:     0 d,  0 h,  0 min,  0.469 sec
 * ratio c/w:     3.301 speedup
 SCF:
 * wall-time:     0 d,  0 h,  0 min,  0.012 sec
 *  cpu-time:     0 d,  0 h,  0 min,  0.047 sec
 * ratio c/w:     3.906 speedup
 ANC optimizer:
 * wall-time:     0 d,  0 h,  0 min,  0.082 sec
 *  cpu-time:     0 d,  0 h,  0 min,  0.312 sec
 * ratio c/w:     3.811 speedup

