20
 energy: -36.136475332948 gnorm: 0.000156738659 xtb: 6.7.1pre (5071a88)
C           -1.19871015533805       -0.15804709714043       -1.31587185989251
C           -1.21626212241094        0.86455539980608       -0.17573755095738
C           -0.35002595709992        0.34639070594507        0.98001328211076
C            1.04545756313109        0.00329122211604        0.45625900132117
C            0.91898015826632       -0.97612265556425       -0.72238464004846
O            0.11210973393098       -0.44917514611814       -1.74113831266134
O            2.18778457162965       -1.20307298385042       -1.24051398215023
O            1.78954835033682       -0.55644172286306        1.50923368307549
O           -0.30372942898545        1.33945942944224        1.97509157883287
O           -2.54403456805787        1.05576722562202        0.22992520920291
H           -1.72032423210158        0.23801796023969       -2.18681908661377
H           -1.70630680579798       -1.07162283354742       -0.97585062169599
H           -0.77982168212315        1.81330424726099       -0.52696719106507
H           -0.80355651619686       -0.57191355337702        1.38939169987874
H            1.53135744094594        0.91898124142348        0.08354548637183
H            0.47763185372820       -1.92675794495031       -0.34821816760666
H            2.08928350027186       -1.39947715827942       -2.17935706329097
H            2.60443621487662       -0.91195794265910        1.13466236032852
H            0.38389355706751        1.08404951068628        2.60182704614476
H           -2.51771047607319        1.56077409580768        1.05291012871532
