21
Coordinates from ORCA-job optfreq E -536.411831963269
  C          -2.91398681993147     -0.27250655436142      2.17656288777728
  O          -1.88265540939337     -0.96241913407083      1.48299154707638
  C          -1.00374042181825     -0.21042824282807      0.76403901447847
  C          -0.01060972490773     -0.93572537139245      0.09480622465823
  C           0.94060503816868     -0.25527957095182     -0.67181825846864
  C           0.91669242329602      1.13339060011883     -0.78085161990828
  C          -0.07656440845992      1.83914212196544     -0.10965157659641
  C          -1.03276537750743      1.18254834585415      0.65846818472742
  O           1.85433004520754     -1.08798306955235     -1.27238080632386
  C           2.86372389918234     -0.48459271878049     -2.07364944932426
  O           0.00932418913127     -2.29318959559215      0.20369357898093
  H          -3.50110759827743     -1.04365440105383      2.67820852349385
  H          -3.56065767857105      0.28438609280010      1.48456861975640
  H          -2.50279748592588      0.41684276758419      2.92686499078699
  H           1.65285850104612      1.66162074589162     -1.37458859141951
  H          -0.10640483173382      2.92120738035321     -0.18644851744497
  H          -1.79486936978990      1.75736362536064      1.17011897385256
  H           3.48855147840227      0.19446496970687     -1.47879002384241
  H           2.42470003006498      0.06448750799300     -2.91696540586077
  H           3.47685916267534     -1.30365396954054     -2.45326797612811
  H           0.75851135914170     -2.60602152950410     -0.32191032027132
