18
Coordinates from ORCA-job optfreq E -235.798573984607
  C          -0.70410179122051     -1.12875671494221     -0.64127551836048
  C           0.55869385812911     -1.35355247026414      0.19552577508429
  C           1.46198984623261     -0.11754754802034      0.17522025650442
  C           0.70408707187435      1.12872355363104      0.64148445494472
  C          -0.55856580269175      1.35358907484448     -0.19545996558837
  C          -1.46195532805854      0.11762741055694     -0.17535833336816
  H          -0.41826675836497     -1.00218465972743     -1.69612025187995
  H          -1.35512634998359     -2.01058425234224     -0.59392934351379
  H           1.10562993881660     -2.23202738034233     -0.16894835062592
  H           0.26799988069245     -1.56965828593329      1.23433838863058
  H           1.82607980916103      0.04528150904208     -0.85009187990848
  H           2.34704332135116     -0.28187090448417      0.80243073507991
  H           1.35502546194001      2.01064412936258      0.59465352055914
  H           0.41814219831778      1.00174345684041      1.69625913027705
  H          -0.26768000993157      1.56954507130380     -1.23424695134057
  H          -1.10556958017402      2.23205313711372      0.16890891160766
  H          -2.34665138105459      0.28197512910279     -0.80310983315154
  H          -1.82677438503557     -0.04500025574169      0.84971825504952
