24

C      2.611866   -0.461010    0.112845
C      1.167678   -0.191347   -0.322763
C      0.620982    1.089680    0.322641
C     -0.856152    1.263968   -0.039021
C     -1.642571    0.003631    0.305886
C     -0.974991   -1.211052   -0.357409
O      0.377706   -1.339899    0.054419
O     -1.681390   -2.373365    0.054819
O     -2.999476    0.160151   -0.134863
O     -1.382878    2.394414    0.673228
O      1.347837    2.238153   -0.115646
O      3.068005   -1.681052   -0.477514
H      2.681531   -0.580686    1.199093
H      3.285513    0.342160   -0.199105
H      1.154290   -0.114513   -1.418315
H      0.721307    1.038805    1.414272
H     -0.963496    1.508933   -1.103160
H     -1.682769   -0.124846    1.394814
H     -1.043245   -1.153907   -1.450699
H     -1.260827   -3.106005   -0.427092
H     -3.417684   -0.711316    0.020142
H     -2.352505    2.347794    0.545049
H      0.832169    3.007261    0.203554
H      2.389098   -2.345950   -0.255174
