      -----------------------------------------------------------      
     |                   =====================                   |     
     |                           x T B                           |     
     |                   =====================                   |     
     |                         S. Grimme                         |     
     |          Mulliken Center for Theoretical Chemistry        |     
     |                    University of Bonn                     |     
      -----------------------------------------------------------      

   * xtb version 6.7.1pre (5071a88) compiled by 'Marcel@Raven' on 2024-07-23

   xtb is free software: you can redistribute it and/or modify it under
   the terms of the GNU Lesser General Public License as published by
   the Free Software Foundation, either version 3 of the License, or
   (at your option) any later version.
   
   xtb is distributed in the hope that it will be useful,
   but WITHOUT ANY WARRANTY; without even the implied warranty of
   MERCHANTABILITY or FITNESS FOR A PARTICULAR PURPOSE.  See the
   GNU Lesser General Public License for more details.
   
   Cite this work as:
   * C. Bannwarth, E. Caldeweyher, S. Ehlert, A. Hansen, P. Pracht,
     J. Seibert, S. Spicher, S. Grimme, WIREs Comput. Mol. Sci., 2020, 11,
     e01493. DOI: 10.1002/wcms.1493
   
   for GFN2-xTB:
   * C. Bannwarth, S. Ehlert and S. Grimme., J. Chem. Theory Comput., 2019,
     15, 1652-1671. DOI: 10.1021/acs.jctc.8b01176
   for GFN1-xTB:
   * S. Grimme, C. Bannwarth, P. Shushkov, J. Chem. Theory Comput., 2017,
     13, 1989-2009. DOI: 10.1021/acs.jctc.7b00118
   for GFN0-xTB:
   * P. Pracht, E. Caldeweyher, S. Ehlert, S. Grimme, ChemRxiv, 2019, preprint.
     DOI: 10.26434/chemrxiv.8326202.v1
   for GFN-FF:
   * S. Spicher and S. Grimme, Angew. Chem. Int. Ed., 2020, 59, 15665-15673.
     DOI: 10.1002/anie.202004239
   
   for ALPB and GBSA implicit solvation:
   * S. Ehlert, M. Stahn, S. Spicher, S. Grimme, J. Chem. Theory Comput.,
     2021, 17, 4250-4261. DOI: 10.1021/acs.jctc.1c00471
   
   for ddCOSMO and CPCM-X implicit solvation:
   * M. Stahn, S. Ehlert, S. Grimme, J. Phys. Chem. A,
     2023, XX, XXXX-XXXX. DOI: 10.1021/acs.jpca.3c04382
   
   for DFT-D4:
   * E. Caldeweyher, C. Bannwarth and S. Grimme, J. Chem. Phys., 2017,
     147, 034112. DOI: 10.1063/1.4993215
   * E. Caldeweyher, S. Ehlert, A. Hansen, H. Neugebauer, S. Spicher,
     C. Bannwarth and S. Grimme, J. Chem. Phys., 2019, 150, 154122.
     DOI: 10.1063/1.5090222
   * E. Caldeweyher, J.-M. Mewes, S. Ehlert and S. Grimme, Phys. Chem. Chem. Phys.
     2020, 22, 8499-8512. DOI: 10.1039/D0CP00502A
   
   for sTDA-xTB:
   * S. Grimme and C. Bannwarth, J. Chem. Phys., 2016, 145, 054103.
     DOI: 10.1063/1.4959605
   
   in the mass-spec context:
   * V. Asgeirsson, C. Bauer and S. Grimme, Chem. Sci., 2017, 8, 4879.
     DOI: 10.1039/c7sc00601b
   * J. Koopman and S. Grimme, ACS Omega 2019, 4, 12, 15120-15133.
     DOI: 10.1021/acsomega.9b02011
   
   for metadynamics refer to:
   * S. Grimme, J. Chem. Theory Comput., 2019, 155, 2847-2862
     DOI: 10.1021/acs.jctc.9b00143
   
   for SPH calculations refer to:
   * S. Spicher and S. Grimme, J. Chem. Theory Comput., 2021, 17, 1701-1714
     DOI: 10.1021/acs.jctc.0c01306
   
   for ONIOM refer to:
   * C. Plett, A. Katbashev, S. Ehlert, S. Grimme, M. Bursch,
     Phys. Chem. Chem. Phys., 2023, 25, 17860-17868. DOI: 10.1039/D3CP02178E
   
   for DIPRO refer to:
   * J. Kohn, N. Gildemeister, S. Grimme, D. Fazzi, A. Hansen,
     J. Chem. Phys., 2023, just accepted.
   
   for PTB refer to:
   * S. Grimme, M. Mueller, A. Hansen, J. Chem. Phys., 2023, 158, 124111.
     DOI: 10.1063/5.0137838
   
   with help from (in alphabetical order)
   P. Atkinson, C. Bannwarth, F. Bohle, G. Brandenburg, E. Caldeweyher
   M. Checinski, S. Dohm, S. Ehlert, S. Ehrlich, I. Gerasimov, C. Hölzer
   A. Katbashev, J. Kohn, J. Koopman, C. Lavigne, S. Lehtola, F. März, M. Müller,
   F. Musil, H. Neugebauer, J. Pisarek, C. Plett, P. Pracht, F. Pultar,
   J. Seibert, P. Shushkov, S. Spicher, M. Stahn, M. Steiner, T. Strunk,
   J. Stückrath, T. Rose, and J. Unsleber
   
 * started run on 2026/09/17 at 00:11:27.363     
   ID    Z sym.   atoms
    1    6 C      1-6
    2    8 O      7-12
    3    1 H      13-24

           -------------------------------------------------
          |                Calculation Setup                |
           -------------------------------------------------

          program call               : C:\ORCA_6.1.1\xtb-6.7.1pre\xtb.exe input.xyz --gfn 2 --chrg 0 --uhf 0 --opt tight --json
          coordinate file            : input.xyz
          omp threads                :                     4


           -------------------------------------------------
          |                 G F N 2 - x T B                 |
           -------------------------------------------------

        Reference                      10.1021/acs.jctc.8b01176
      * Hamiltonian:
        H0-scaling (s, p, d)           1.850000    2.230000    2.230000
        zeta-weighting                 0.500000
      * Dispersion:
        s8                             2.700000
        a1                             0.520000
        a2                             5.000000
        s9                             5.000000
      * Repulsion:
        kExp                           1.500000    1.000000
        rExp                           1.000000
      * Coulomb:
        alpha                          2.000000
        third order                    shell-resolved
        anisotropic                    true
        a3                             3.000000
        a5                             4.000000
        cn-shift                       1.200000
        cn-exp                         4.000000
        max-rad                        5.000000


          ...................................................
          :                      SETUP                      :
          :.................................................:
          :  # basis functions                  60          :
          :  # atomic orbitals                  60          :
          :  # shells                           36          :
          :  # electrons                        72          :
          :  max. iterations                   250          :
          :  Hamiltonian                  GFN2-xTB          :
          :  restarted?                      false          :
          :  GBSA solvation                  false          :
          :  PC potential                    false          :
          :  electronic temp.          300.0000000     K    :
          :  accuracy                    1.0000000          :
          :  -> integral cutoff          0.2500000E+02      :
          :  -> integral neglect         0.1000000E-07      :
          :  -> SCF convergence          0.1000000E-05 Eh   :
          :  -> wf. convergence          0.1000000E-03 e    :
          :  Broyden damping             0.4000000          :
          :  net charge                          0          :
          :  unpaired electrons                  0          :
          ...................................................

 iter      E             dE          RMSdq      gap      omega  full diag
   1    -43.5997742 -0.435998E+02  0.473E+00    9.91       0.0  T
   2    -43.6439819 -0.442077E-01  0.256E+00    9.66       1.0  T
   3    -43.6451291 -0.114718E-02  0.813E-01    9.75       1.0  T
   4    -43.6465600 -0.143089E-02  0.157E-01    9.65       1.0  T
   5    -43.6466448 -0.848074E-04  0.722E-02    9.69       1.0  T
   6    -43.6466555 -0.107384E-04  0.207E-02    9.70       1.0  T
   7    -43.6466565 -0.927232E-06  0.684E-03    9.70       3.0  T
   8    -43.6466569 -0.408043E-06  0.201E-03    9.70      10.2  T
   9    -43.6466569 -0.517926E-08  0.802E-04    9.70      25.4  T
  10    -43.6466569 -0.587843E-08  0.237E-04    9.70      86.1  T

   *** convergence criteria satisfied after 10 iterations ***

         #    Occupation            Energy/Eh            Energy/eV
      -------------------------------------------------------------
         1        2.0000           -0.7367201             -20.0472
       ...           ...                  ...                  ...
        30        2.0000           -0.4722159             -12.8496
        31        2.0000           -0.4559065             -12.4058
        32        2.0000           -0.4515819             -12.2882
        33        2.0000           -0.4346906             -11.8285
        34        2.0000           -0.4271498             -11.6233
        35        2.0000           -0.4266111             -11.6087
        36        2.0000           -0.4180109             -11.3747 (HOMO)
        37                         -0.0616465              -1.6775 (LUMO)
        38                         -0.0346659              -0.9433
        39                         -0.0147309              -0.4008
        40                          0.0090365               0.2459
        41                          0.0271185               0.7379
       ...                                ...                  ...
        60                          0.2617393               7.1223
      -------------------------------------------------------------
                  HL-Gap            0.3563644 Eh            9.6972 eV
             Fermi-level           -0.2398287 Eh           -6.5261 eV

 SCC (total)                   0 d,  0 h,  0 min,  0.011 sec
 SCC setup                      ...        0 min,  0.000 sec (  0.000%)
 Dispersion                     ...        0 min,  0.000 sec (  0.000%)
 classical contributions        ...        0 min,  0.000 sec (  0.000%)
 integral evaluation            ...        0 min,  0.001 sec (  9.090%)
 iterations                     ...        0 min,  0.008 sec ( 72.729%)
 molecular gradient             ...        0 min,  0.002 sec ( 18.181%)
 printout                       ...        0 min,  0.000 sec (  0.000%)

         :::::::::::::::::::::::::::::::::::::::::::::::::::::
         ::                     SUMMARY                     ::
         :::::::::::::::::::::::::::::::::::::::::::::::::::::
         :: total energy             -43.354903968271 Eh    ::
         :: gradient norm              0.065446988340 Eh/a0 ::
         :: HOMO-LUMO gap              9.697169993115 eV    ::
         ::.................................................::
         :: SCC energy               -43.646519736717 Eh    ::
         :: -> isotropic ES            0.138616432368 Eh    ::
         :: -> anisotropic ES         -0.005387110316 Eh    ::
         :: -> anisotropic XC         -0.008441557307 Eh    ::
         :: -> dispersion             -0.018499198277 Eh    ::
         :: repulsion energy           0.291615768446 Eh    ::
         :: add. restraining           0.000000000000 Eh    ::
         :: total charge              -0.000000000000 e     ::
         :::::::::::::::::::::::::::::::::::::::::::::::::::::

      ----------------------------------------------------------- 
     |                   =====================                   |
     |                        A N C O P T                        |
     |                   =====================                   |
     |               Approximate Normal Coordinate               |
     |                Rational Function Optimizer                |
      ----------------------------------------------------------- 
      ----------------------------------------------------------- 
     |                   =====================                   |
     |                        A N C O P T                        |
     |                   =====================                   |
     |               Approximate Normal Coordinate               |
     |                Rational Function Optimizer                |
      ----------------------------------------------------------- 

          ...................................................
          :                      SETUP                      :
          :.................................................:
          :   optimization level             tight          :
          :   max. optcycles                   200          :
          :   ANC micro-cycles                  20          :
          :   degrees of freedom                66          :
          :.................................................:
          :   RF solver                   davidson          :
          :   write xtbopt.log                true          :
          :   linear?                        false          :
          :   energy convergence         0.1000000E-05 Eh   :
          :   grad. convergence          0.8000000E-03 Eh/α :
          :   maxmium RF displ.          1.0000000          :
          :   Hlow (freq-cutoff)         0.1000000E-01      :
          :   Hmax (freq-cutoff)         5.0000000          :
          :   S6 in model hess.         20.0000000          :
          ...................................................

generating ANC from exact Hessian ...
Using Lindh-Hessian (1995)
 Shifting diagonal of input Hessian by   7.369018495407526E-003
 Lowest  eigenvalues of input Hessian
    0.000000    0.000000    0.000000    0.000000    0.000000    0.000000
    0.010000    0.011406    0.012588    0.013108    0.015839    0.020722
    0.021650    0.023072    0.024974    0.028174    0.030318    0.034744
 Highest eigenvalues
    1.372364    1.393748    1.405135    1.430071    1.440972    1.543223
 

........................................................................
.............................. CYCLE    1 ..............................
........................................................................

 iter      E             dE          RMSdq      gap      omega  full diag
   1    -43.6466569 -0.436467E+02  0.109E-04    9.70       0.0  T
   2    -43.6466569 -0.786642E-10  0.513E-05    9.70     397.9  T
   3    -43.6466569 -0.512301E-11  0.296E-05    9.70     688.6  T
     SCC iter.                  ...        0 min,  0.002 sec
     gradient                   ...        0 min,  0.003 sec
 * total energy  :   -43.3549040 Eh     change       -0.4579732E-09 Eh
   gradient norm :     0.0654452 Eh/α   predicted     0.0000000E+00 (-100.00%)
   displ. norm   :     0.2550395 α      lambda       -0.7942886E-02
   maximum displ.:     0.1040424 α      in ANC's #13, #17, #28, ...

........................................................................
.............................. CYCLE    2 ..............................
........................................................................

 iter      E             dE          RMSdq      gap      omega  full diag
   1    -43.6621478 -0.436621E+02  0.188E-01   10.05       0.0  T
   2    -43.6621684 -0.206181E-04  0.110E-01   10.05       1.0  T
   3    -43.6621689 -0.533906E-06  0.176E-02   10.06       1.2  T
   4    -43.6621714 -0.251132E-05  0.512E-03   10.06       4.0  T
   5    -43.6621715 -0.677525E-07  0.203E-03   10.06      10.0  T
   6    -43.6621715 -0.112391E-07  0.910E-04   10.06      22.4  T
   7    -43.6621715 -0.189254E-08  0.168E-04   10.06     121.6  T
     SCC iter.                  ...        0 min,  0.003 sec
     gradient                   ...        0 min,  0.002 sec
 * total energy  :   -43.3605024 Eh     change       -0.5598472E-02 Eh
   gradient norm :     0.0369269 Eh/α   predicted    -0.4230129E-02 ( -24.44%)
   displ. norm   :     0.2156700 α      lambda       -0.3267566E-02
   maximum displ.:     0.0879966 α      in ANC's #17, #13, #16, ...

........................................................................
.............................. CYCLE    3 ..............................
........................................................................

 iter      E             dE          RMSdq      gap      omega  full diag
   1    -43.6705314 -0.436705E+02  0.139E-01   10.38       0.0  T
   2    -43.6705515 -0.200973E-04  0.824E-02   10.38       1.0  T
   3    -43.6705519 -0.319805E-06  0.190E-02   10.39       1.1  T
   4    -43.6705541 -0.227411E-05  0.449E-03   10.39       4.5  T
   5    -43.6705542 -0.719007E-07  0.156E-03   10.39      13.1  T
   6    -43.6705542 -0.859033E-08  0.778E-04   10.39      26.2  T
   7    -43.6705542 -0.757041E-09  0.145E-04   10.39     140.8  T
     SCC iter.                  ...        0 min,  0.030 sec
     gradient                   ...        0 min,  0.003 sec
 * total energy  :   -43.3623671 Eh     change       -0.1864668E-02 Eh
   gradient norm :     0.0091683 Eh/α   predicted    -0.1710168E-02 (  -8.29%)
   displ. norm   :     0.0900941 α      lambda       -0.2884701E-03
   maximum displ.:     0.0390910 α      in ANC's #8, #16, #3, ...

........................................................................
.............................. CYCLE    4 ..............................
........................................................................

 iter      E             dE          RMSdq      gap      omega  full diag
   1    -43.6701551 -0.436702E+02  0.393E-02   10.45       0.0  T
   2    -43.6701559 -0.758426E-06  0.237E-02   10.46       1.0  T
   3    -43.6701560 -0.121851E-06  0.344E-03   10.46       5.9  T
   4    -43.6701561 -0.791407E-07  0.132E-03   10.46      15.4  T
   5    -43.6701561 -0.629721E-08  0.443E-04   10.46      46.0  T
   6    -43.6701561 -0.334623E-09  0.213E-04   10.46      95.7  T
     SCC iter.                  ...        0 min,  0.004 sec
     gradient                   ...        0 min,  0.002 sec
 * total energy  :   -43.3625712 Eh     change       -0.2040786E-03 Eh
   gradient norm :     0.0056034 Eh/α   predicted    -0.1454140E-03 ( -28.75%)
   displ. norm   :     0.1035527 α      lambda       -0.1774038E-03
   maximum displ.:     0.0391692 α      in ANC's #8, #2, #3, ...

........................................................................
.............................. CYCLE    5 ..............................
........................................................................

 iter      E             dE          RMSdq      gap      omega  full diag
   1    -43.6691882 -0.436692E+02  0.418E-02   10.48       0.0  T
   2    -43.6691886 -0.458690E-06  0.256E-02   10.48       1.0  T
   3    -43.6691888 -0.162711E-06  0.239E-03   10.48       8.5  T
   4    -43.6691888 -0.382898E-07  0.125E-03   10.48      16.3  T
   5    -43.6691888 -0.219529E-08  0.347E-04   10.48      58.8  T
   6    -43.6691888 -0.293241E-09  0.123E-04   10.48     165.5  T
     SCC iter.                  ...        0 min,  0.005 sec
     gradient                   ...        0 min,  0.006 sec
 * total energy  :   -43.3626900 Eh     change       -0.1187958E-03 Eh
   gradient norm :     0.0064950 Eh/α   predicted    -0.8969657E-04 ( -24.50%)
   displ. norm   :     0.1035527 α      lambda        0.0000000E+00
   maximum displ.:     0.0391692 α      in ANC's #8, #2, #3, ...

........................................................................
.............................. CYCLE    6 ..............................
........................................................................

 iter      E             dE          RMSdq      gap      omega  full diag
   1    -43.6676951 -0.436677E+02  0.418E-02   10.50       0.0  T
   2    -43.6676955 -0.476947E-06  0.256E-02   10.50       1.0  T
   3    -43.6676957 -0.169634E-06  0.243E-03   10.50       8.4  T
   4    -43.6676958 -0.415745E-07  0.128E-03   10.50      15.9  T
   5    -43.6676958 -0.222902E-08  0.344E-04   10.50      59.3  T
   6    -43.6676958 -0.332442E-09  0.133E-04   10.50     153.6  T
     SCC iter.                  ...        0 min,  0.003 sec
     gradient                   ...        0 min,  0.003 sec
 * total energy  :   -43.3626850 Eh     change        0.5009958E-05 Eh
   gradient norm :     0.0114760 Eh/α   predicted    -0.1445437E-08 (-100.03%)
   displ. norm   :     0.0312479 α      lambda       -0.1107220E-03
   maximum displ.:     0.0165231 α      in ANC's #8, #3, #17, ...

........................................................................
.............................. CYCLE    7 ..............................
........................................................................

 iter      E             dE          RMSdq      gap      omega  full diag
   1    -43.6691357 -0.436691E+02  0.159E-02   10.48       0.0  T
   2    -43.6691358 -0.187528E-06  0.940E-03   10.48       2.2  T
   3    -43.6691359 -0.368335E-07  0.158E-03   10.48      12.9  T
   4    -43.6691359 -0.103801E-07  0.640E-04   10.48      31.9  T
   5    -43.6691359 -0.181908E-08  0.243E-04   10.48      84.0  T
     SCC iter.                  ...        0 min,  0.005 sec
     gradient                   ...        0 min,  0.002 sec
 * total energy  :   -43.3627619 Eh     change       -0.7692670E-04 Eh
   gradient norm :     0.0052851 Eh/α   predicted    -0.5541592E-04 ( -27.96%)
   displ. norm   :     0.0602793 α      lambda       -0.8912724E-04
   maximum displ.:     0.0282164 α      in ANC's #2, #1, #16, ...

........................................................................
.............................. CYCLE    8 ..............................
........................................................................

 iter      E             dE          RMSdq      gap      omega  full diag
   1    -43.6702044 -0.436702E+02  0.248E-02   10.46       0.0  T
   2    -43.6702047 -0.278729E-06  0.148E-02   10.46       1.4  T
   3    -43.6702048 -0.528804E-07  0.187E-03   10.46      10.9  T
   4    -43.6702048 -0.145157E-07  0.718E-04   10.46      28.4  T
   5    -43.6702048 -0.218475E-08  0.271E-04   10.46      75.2  T
     SCC iter.                  ...        0 min,  0.004 sec
     gradient                   ...        0 min,  0.002 sec
 * total energy  :   -43.3628250 Eh     change       -0.6308806E-04 Eh
   gradient norm :     0.0020188 Eh/α   predicted    -0.4473973E-04 ( -29.08%)
   displ. norm   :     0.1072926 α      lambda       -0.6812021E-04
   maximum displ.:     0.0528902 α      in ANC's #2, #1, #16, ...

........................................................................
.............................. CYCLE    9 ..............................
........................................................................

 iter      E             dE          RMSdq      gap      omega  full diag
   1    -43.6704444 -0.436704E+02  0.415E-02   10.46       0.0  T
   2    -43.6704447 -0.380716E-06  0.252E-02   10.46       1.0  T
   3    -43.6704449 -0.135990E-06  0.203E-03   10.46      10.1  T
   4    -43.6704449 -0.158135E-07  0.989E-04   10.46      20.6  T
   5    -43.6704449 -0.188002E-08  0.368E-04   10.46      55.5  T
     SCC iter.                  ...        0 min,  0.002 sec
     gradient                   ...        0 min,  0.002 sec
 * total energy  :   -43.3628740 Eh     change       -0.4903297E-04 Eh
   gradient norm :     0.0025905 Eh/α   predicted    -0.3445462E-04 ( -29.73%)
   displ. norm   :     0.1140187 α      lambda       -0.4459590E-04
   maximum displ.:     0.0549291 α      in ANC's #2, #1, #16, ...

........................................................................
.............................. CYCLE   10 ..............................
........................................................................

 iter      E             dE          RMSdq      gap      omega  full diag
   1    -43.6701635 -0.436702E+02  0.431E-02   10.46       0.0  T
   2    -43.6701638 -0.312620E-06  0.262E-02   10.46       1.0  T
   3    -43.6701639 -0.121730E-06  0.190E-03   10.46      10.7  T
   4    -43.6701640 -0.196066E-07  0.102E-03   10.46      20.1  T
   5    -43.6701640 -0.200865E-08  0.345E-04   10.46      59.2  T
   6    -43.6701640 -0.253415E-09  0.946E-05   10.46     215.8  T
     SCC iter.                  ...        0 min,  0.004 sec
     gradient                   ...        0 min,  0.003 sec
 * total energy  :   -43.3629036 Eh     change       -0.2962820E-04 Eh
   gradient norm :     0.0029426 Eh/α   predicted    -0.2258842E-04 ( -23.76%)
   displ. norm   :     0.0730772 α      lambda       -0.2486798E-04
   maximum displ.:     0.0428283 α      in ANC's #1, #2, #4, ...

........................................................................
.............................. CYCLE   11 ..............................
........................................................................

 iter      E             dE          RMSdq      gap      omega  full diag
   1    -43.6702154 -0.436702E+02  0.269E-02   10.47       0.0  T
   2    -43.6702156 -0.149100E-06  0.163E-02   10.47       1.3  T
   3    -43.6702156 -0.248585E-07  0.139E-03   10.47      14.7  T
   4    -43.6702156 -0.184021E-07  0.613E-04   10.47      33.3  T
   5    -43.6702156 -0.116924E-08  0.237E-04   10.47      86.0  T
     SCC iter.                  ...        0 min,  0.003 sec
     gradient                   ...        0 min,  0.002 sec
 * total energy  :   -43.3629206 Eh     change       -0.1695103E-04 Eh
   gradient norm :     0.0010065 Eh/α   predicted    -0.1252779E-04 ( -26.09%)
   displ. norm   :     0.1084340 α      lambda       -0.1464843E-04
   maximum displ.:     0.0748182 α      in ANC's #1, #4, #2, ...

........................................................................
.............................. CYCLE   12 ..............................
........................................................................

 iter      E             dE          RMSdq      gap      omega  full diag
   1    -43.6701765 -0.436702E+02  0.360E-02   10.47       0.0  T
   2    -43.6701767 -0.202372E-06  0.218E-02   10.47       1.0  T
   3    -43.6701767 -0.421296E-07  0.170E-03   10.47      12.0  T
   4    -43.6701768 -0.313800E-07  0.788E-04   10.47      25.9  T
   5    -43.6701768 -0.116975E-08  0.259E-04   10.47      78.9  T
     SCC iter.                  ...        0 min,  0.003 sec
     gradient                   ...        0 min,  0.002 sec
 * total energy  :   -43.3629311 Eh     change       -0.1045921E-04 Eh
   gradient norm :     0.0019364 Eh/α   predicted    -0.7369754E-05 ( -29.54%)
   displ. norm   :     0.0395260 α      lambda       -0.9210225E-05
   maximum displ.:     0.0253443 α      in ANC's #1, #4, #13, ...

........................................................................
.............................. CYCLE   13 ..............................
........................................................................

 iter      E             dE          RMSdq      gap      omega  full diag
   1    -43.6706605 -0.436707E+02  0.139E-02   10.47       0.0  T
   2    -43.6706606 -0.721349E-07  0.845E-03   10.47       2.4  T
   3    -43.6706606 -0.297458E-07  0.918E-04   10.47      22.2  T
   4    -43.6706606 -0.260840E-08  0.457E-04   10.47      44.7  T
     SCC iter.                  ...        0 min,  0.002 sec
     gradient                   ...        0 min,  0.003 sec
 * total energy  :   -43.3629339 Eh     change       -0.2807924E-05 Eh
   gradient norm :     0.0024033 Eh/α   predicted    -0.4609656E-05 (  64.17%)
   displ. norm   :     0.0140594 α      lambda       -0.5772554E-05
   maximum displ.:     0.0103940 α      in ANC's #1, #4, #8, ...

........................................................................
.............................. CYCLE   14 ..............................
........................................................................

 iter      E             dE          RMSdq      gap      omega  full diag
   1    -43.6704336 -0.436704E+02  0.511E-03   10.47       0.0  T
   2    -43.6704336 -0.116547E-07  0.308E-03   10.47       6.6  T
   3    -43.6704336 -0.242264E-08  0.379E-04   10.47      53.9  T
   4    -43.6704336 -0.104411E-08  0.167E-04   10.47     122.4  T
     SCC iter.                  ...        0 min,  0.002 sec
     gradient                   ...        0 min,  0.002 sec
 * total energy  :   -43.3629382 Eh     change       -0.4358298E-05 Eh
   gradient norm :     0.0010562 Eh/α   predicted    -0.2887296E-05 ( -33.75%)
   displ. norm   :     0.0306388 α      lambda       -0.4103132E-05
   maximum displ.:     0.0197171 α      in ANC's #1, #2, #3, ...

........................................................................
.............................. CYCLE   15 ..............................
........................................................................

 iter      E             dE          RMSdq      gap      omega  full diag
   1    -43.6702654 -0.436703E+02  0.929E-03   10.47       0.0  T
   2    -43.6702654 -0.274742E-07  0.559E-03   10.47       3.7  T
   3    -43.6702654 -0.639158E-08  0.565E-04   10.47      36.1  T
   4    -43.6702654 -0.220763E-08  0.265E-04   10.47      77.2  T
     SCC iter.                  ...        0 min,  0.003 sec
     gradient                   ...        0 min,  0.003 sec
 * total energy  :   -43.3629407 Eh     change       -0.2493843E-05 Eh
   gradient norm :     0.0010130 Eh/α   predicted    -0.2054068E-05 ( -17.63%)
   displ. norm   :     0.0092327 α      lambda       -0.8696163E-06
   maximum displ.:     0.0077524 α      in ANC's #1, #2, #4, ...

........................................................................
.............................. CYCLE   16 ..............................
........................................................................

 iter      E             dE          RMSdq      gap      omega  full diag
   1    -43.6703087 -0.436703E+02  0.284E-03   10.47       0.0  T
   2    -43.6703087 -0.293777E-08  0.171E-03   10.47      11.9  T
   3    -43.6703087 -0.392426E-09  0.209E-04   10.47      97.9  T
   4    -43.6703087 -0.421622E-09  0.851E-05   10.47     239.8  T
     SCC iter.                  ...        0 min,  0.002 sec
     gradient                   ...        0 min,  0.003 sec
 * total energy  :   -43.3629417 Eh     change       -0.9789548E-06 Eh
   gradient norm :     0.0003870 Eh/α   predicted    -0.4352092E-06 ( -55.54%)
   displ. norm   :     0.0230108 α      lambda       -0.9077332E-06
   maximum displ.:     0.0186423 α      in ANC's #1, #2, #3, ...

   *** GEOMETRY OPTIMIZATION CONVERGED AFTER 16 ITERATIONS ***

------------------------------------------------------------------------
 total energy gain   :        -0.0080377 Eh       -5.0438 kcal/mol
 total RMSD          :         0.1981074 a0        0.1048 Å
 total power (kW/mol):        -1.3189412 (step) -137.0328 (real)
------------------------------------------------------------------------

 ANCopt (total)                0 d,  0 h,  0 min,  0.154 sec
 optimizer setup                ...        0 min,  0.001 sec (  0.649%)
 model hessian                  ...        0 min,  0.010 sec (  6.493%)
 ANC generation                 ...        0 min,  0.001 sec (  0.649%)
 coordinate transformation      ...        0 min,  0.000 sec (  0.000%)
 single point calculation       ...        0 min,  0.138 sec ( 89.610%)
 optimization log               ...        0 min,  0.003 sec (  1.948%)
 hessian update                 ...        0 min,  0.000 sec (  0.000%)
 rational function              ...        0 min,  0.001 sec (  0.649%)

================
 final structure:
================
24
 xtb: 6.7.1pre (5071a88)
C            2.56882817265575       -0.49512585089970        0.12800454983787
C            1.13794841047371       -0.19322995674454       -0.32732459228437
C            0.59672535069572        1.07974198381544        0.33365040258759
C           -0.87793916453356        1.26978849436791       -0.04309321518873
C           -1.66393585011415        0.00497631816561        0.30234351723141
C           -0.99590195526621       -1.20122170987449       -0.37391765086534
O            0.34640065774024       -1.32141185828516        0.01313031701939
O           -1.67659094724105       -2.34414330343156        0.02027568389120
O           -2.98792095327225        0.17224308143801       -0.13649142313543
O           -1.36383889179274        2.39177000856659        0.65119980684042
O            1.36871447753071        2.16814375561428       -0.09146789116434
O            3.10501655228247       -1.60578716988649       -0.53440805449257
H            2.56240671930273       -0.65281210865304        1.21523137411618
H            3.20126425070613        0.35992476708149       -0.11185217051412
H            1.12620441896406       -0.05395801314144       -1.41947459663453
H            0.65646624469354        0.96988388937426        1.42896444615063
H           -0.95417045564142        1.44064011431590       -1.12998985556217
H           -1.63366105690363       -0.15970816744307        1.39086931738980
H           -1.05357561839667       -1.06988201931417       -1.47699404085327
H           -1.10134043465350       -3.10523994632276       -0.12064605029073
H           -3.43612885759468       -0.67749627866165       -0.04817797568163
H           -2.32352111298602        2.39687765667368        0.55101463377727
H            0.90248310395552        2.96850831258545        0.18369457082669
H            2.49606493939534       -2.34247999934051       -0.40454010300125
 
 Bond Distances (Angstroems)
 ---------------------------
C1-C2=1.5316         C1-O12=1.3999        C1-H13=1.0986        C1-H14=1.0902        C2-C1=1.5316         C2-C3=1.5331         
C2-O7=1.4196         C2-H15=1.1011        C3-C2=1.5331         C3-C4=1.5338         C3-O11=1.4005        C3-H16=1.1024        
C4-C3=1.5338         C4-C5=1.5287         C4-O10=1.4061        C4-H17=1.1029        C5-C4=1.5287         C5-C6=1.5357         
C5-O9=1.4048         C5-H18=1.1013        C6-C5=1.5357         C6-O7=1.4022         C6-O8=1.3874         C6-H19=1.1124        
O7-C2=1.4196         O7-C6=1.4022         O8-C6=1.3874         O8-H20=0.9644        O9-C5=1.4048         O9-H21=0.9648        
O10-C4=1.4061        O10-H22=0.9649       O11-C3=1.4005        O11-H23=0.9663       O12-C1=1.3999        O12-H24=0.9646       
H13-C1=1.0986        H14-C1=1.0902        H15-C2=1.1011        H16-C3=1.1024        H17-C4=1.1029        H18-C5=1.1013        
H19-C6=1.1124        H20-O8=0.9644        H21-O9=0.9648        H22-O10=0.9649       H23-O11=0.9663       H24-O12=0.9646       
 C  H  Rav=1.1013 sigma=0.0060  Rmin=1.0902  Rmax=1.1124     7
 C  C  Rav=1.5326 sigma=0.0024  Rmin=1.5287  Rmax=1.5357     5
 O  H  Rav=0.9650 sigma=0.0007  Rmin=0.9644  Rmax=0.9663     5
 O  C  Rav=1.4029 sigma=0.0088  Rmin=1.3874  Rmax=1.4196     7
 
 selected bond angles (degree)
 --------------------
O12-C1-C2=111.93               H13-C1-C2=108.48               H13-C1-O12=110.89              H14-C1-C2=108.78               
H14-C1-O12=107.21              H14-C1-H13=109.49              C3-C2-C1=111.43                O7-C2-C1=107.04                
O7-C2-C3=111.08                H15-C2-C1=109.26               H15-C2-C3=108.59               H15-C2-O7=109.42               
C4-C3-C2=109.66                O11-C3-C2=108.65               O11-C3-C4=111.05               H16-C3-C2=109.06               
H16-C3-C4=107.97               H16-C3-O11=110.44              C5-C4-C3=109.65                O10-C4-C3=108.05               
O10-C4-C5=111.77               H17-C4-C3=109.13               H17-C4-C5=108.38               H17-C4-O10=109.82              
C6-C5-C4=109.07                O9-C5-C4=108.39                O9-C5-C6=111.46                H18-C5-C4=109.45               
H18-C5-C6=107.81               H18-C5-O9=110.64               O7-C6-C5=111.24                O8-C6-C5=107.97                
O8-C6-O7=108.70                H19-C6-C5=108.75               H19-C6-O7=109.48               H19-C6-O8=110.71               
C6-O7-C2=113.54                H20-O8-C6=108.42               H21-O9-C5=107.72               H22-O10-C4=107.26              
 
 selected dihedral angles (degree)
 ---------------------------------
C3-C2-C1-O12=183.88           C3-C2-C1-H13= 61.20           C3-C2-C1-H14=302.17           O7-C2-C1-O12= 62.26           
O7-C2-C1-H13=299.57           O7-C2-C1-H14=180.54           H15-C2-C1-O12=303.87          H15-C2-C1-H13=181.19          
H15-C2-C1-H14= 62.16          C4-C3-C2-C1=185.41            C4-C3-C2-O7=304.66            C4-C3-C2-H15= 65.03           
O11-C3-C2-C1= 63.87           O11-C3-C2-O7=183.12           O11-C3-C2-H15=303.49          H16-C3-C2-C1=303.44           
H16-C3-C2-O7= 62.69           H16-C3-C2-H15=183.06          C5-C4-C3-C2= 54.01            C5-C4-C3-O11=174.10           
C5-C4-C3-H16=295.30           O10-C4-C3-C2=176.06           O10-C4-C3-O11=296.15          O10-C4-C3-H16= 57.35          
H17-C4-C3-C2=295.43           H17-C4-C3-O11= 55.52          H17-C4-C3-H16=176.73          C6-C5-C4-C3=305.53            
C6-C5-C4-O10=185.73           C6-C5-C4-H17= 64.56           O9-C5-C4-C3=184.00            O9-C5-C4-O10= 64.20           
O9-C5-C4-H17=303.04           H18-C5-C4-C3= 63.25           H18-C5-C4-O10=303.45          H18-C5-C4-H17=182.29          
O7-C6-C5-C4= 57.20            O7-C6-C5-O9=176.84            O7-C6-C5-H18=298.45           O8-C6-C5-C4=176.38            
O8-C6-C5-O9=296.03            O8-C6-C5-H18= 57.63           H19-C6-C5-C4=296.55           H19-C6-C5-O9= 56.20           
H19-C6-C5-H18=177.80          C6-O7-C2-C1=181.37            C6-O7-C2-C3= 59.53            C6-O7-C2-H15=299.65           
C2-O7-C6-C5=299.50            C2-O7-C6-O8=180.75            C2-O7-C6-H19= 59.71           H20-O8-C6-C5=200.34           
H20-O8-C6-O7=321.13           H20-O8-C6-H19= 81.41          H21-O9-C5-C4=170.80           H21-O9-C5-C6= 50.76           
H21-O9-C5-H18=290.81          H22-O10-C4-C3=191.28          H22-O10-C4-C5=312.02          H22-O10-C4-H17= 72.34         
           -------------------------------------------------
          |                Final Singlepoint                |
           -------------------------------------------------

          ...................................................
          :                      SETUP                      :
          :.................................................:
          :  # basis functions                  60          :
          :  # atomic orbitals                  60          :
          :  # shells                           36          :
          :  # electrons                        72          :
          :  max. iterations                   250          :
          :  Hamiltonian                  GFN2-xTB          :
          :  restarted?                      false          :
          :  GBSA solvation                  false          :
          :  PC potential                    false          :
          :  electronic temp.          300.0000000     K    :
          :  accuracy                    1.0000000          :
          :  -> integral cutoff          0.2500000E+02      :
          :  -> integral neglect         0.1000000E-07      :
          :  -> SCF convergence          0.1000000E-05 Eh   :
          :  -> wf. convergence          0.1000000E-03 e    :
          :  Broyden damping             0.4000000          :
          :  net charge                          0          :
          :  unpaired electrons                  0          :
          ...................................................

 iter      E             dE          RMSdq      gap      omega  full diag
   1    -43.6703087 -0.436703E+02  0.330E-05   10.47       0.0  T
   2    -43.6703087 -0.146372E-11  0.205E-05   10.47     993.9  T
   3    -43.6703087 -0.206057E-12  0.569E-06   10.47    3590.1  T

   *** convergence criteria satisfied after 3 iterations ***

         #    Occupation            Energy/Eh            Energy/eV
      -------------------------------------------------------------
         1        2.0000           -0.7394254             -20.1208
       ...           ...                  ...                  ...
        30        2.0000           -0.4679006             -12.7322
        31        2.0000           -0.4545560             -12.3691
        32        2.0000           -0.4470438             -12.1647
        33        2.0000           -0.4311220             -11.7314
        34        2.0000           -0.4244906             -11.5510
        35        2.0000           -0.4198062             -11.4235
        36        2.0000           -0.4169010             -11.3445 (HOMO)
        37                         -0.0321825              -0.8757 (LUMO)
        38                         -0.0116459              -0.3169
        39                          0.0119211               0.3244
        40                          0.0323199               0.8795
        41                          0.0482598               1.3132
       ...                                ...                  ...
        60                          0.2800834               7.6215
      -------------------------------------------------------------
                  HL-Gap            0.3847185 Eh           10.4687 eV
             Fermi-level           -0.2245417 Eh           -6.1101 eV

 SCC (total)                   0 d,  0 h,  0 min,  0.005 sec
 SCC setup                      ...        0 min,  0.000 sec (  0.000%)
 Dispersion                     ...        0 min,  0.000 sec (  0.000%)
 classical contributions        ...        0 min,  0.000 sec (  0.000%)
 integral evaluation            ...        0 min,  0.001 sec ( 20.003%)
 iterations                     ...        0 min,  0.001 sec ( 19.998%)
 molecular gradient             ...        0 min,  0.003 sec ( 59.999%)
 printout                       ...        0 min,  0.000 sec (  0.000%)

         :::::::::::::::::::::::::::::::::::::::::::::::::::::
         ::                     SUMMARY                     ::
         :::::::::::::::::::::::::::::::::::::::::::::::::::::
         :: total energy             -43.362941699021 Eh    ::
         :: gradient norm              0.000388252417 Eh/a0 ::
         :: HOMO-LUMO gap             10.468721897187 eV    ::
         ::.................................................::
         :: SCC energy               -43.670172685731 Eh    ::
         :: -> isotropic ES            0.133758162364 Eh    ::
         :: -> anisotropic ES         -0.006361234683 Eh    ::
         :: -> anisotropic XC         -0.010632663297 Eh    ::
         :: -> dispersion             -0.018795841671 Eh    ::
         :: repulsion energy           0.307230986710 Eh    ::
         :: add. restraining           0.000000000000 Eh    ::
         :: total charge               0.000000000000 e     ::
         :::::::::::::::::::::::::::::::::::::::::::::::::::::

           -------------------------------------------------
          |                Property Printout                |
           -------------------------------------------------

    * Orbital Energies and Occupations

         #    Occupation            Energy/Eh            Energy/eV
      -------------------------------------------------------------
         1        2.0000           -0.7394254             -20.1208
       ...           ...                  ...                  ...
        24        2.0000           -0.5288321             -14.3903
        25        2.0000           -0.5126273             -13.9493
        26        2.0000           -0.5074176             -13.8075
        27        2.0000           -0.5018828             -13.6569
        28        2.0000           -0.4849804             -13.1970
        29        2.0000           -0.4755157             -12.9394
        30        2.0000           -0.4679006             -12.7322
        31        2.0000           -0.4545560             -12.3691
        32        2.0000           -0.4470438             -12.1647
        33        2.0000           -0.4311220             -11.7314
        34        2.0000           -0.4244906             -11.5510
        35        2.0000           -0.4198062             -11.4235
        36        2.0000           -0.4169010             -11.3445 (HOMO)
        37                         -0.0321825              -0.8757 (LUMO)
        38                         -0.0116459              -0.3169
        39                          0.0119211               0.3244
        40                          0.0323199               0.8795
        41                          0.0482598               1.3132
        42                          0.0643680               1.7515
        43                          0.0779444               2.1210
        44                          0.0924250               2.5150
        45                          0.0989901               2.6937
        46                          0.1095485               2.9810
        47                          0.1150470               3.1306
       ...                                ...                  ...
        60                          0.2800834               7.6215
      -------------------------------------------------------------
                  HL-Gap            0.3847185 Eh           10.4687 eV
             Fermi-level           -0.2245417 Eh           -6.1101 eV

     #   Z          covCN         q      C6AA      α(0)
     1   6 C        3.677     0.072    19.591     6.341
     2   6 C        3.753     0.094    19.087     6.230
     3   6 C        3.729     0.095    19.106     6.240
     4   6 C        3.731     0.098    19.050     6.230
     5   6 C        3.728     0.088    19.217     6.259
     6   6 C        3.630     0.240    17.233     5.978
     7   8 O        1.701    -0.348    19.856     6.016
     8   8 O        1.658    -0.435    21.540     6.265
     9   8 O        1.656    -0.443    21.698     6.288
    10   8 O        1.656    -0.444    21.722     6.292
    11   8 O        1.657    -0.439    21.622     6.277
    12   8 O        1.656    -0.426    21.355     6.238
    13   1 H        0.923     0.038     2.474     2.460
    14   1 H        0.924     0.079     1.991     2.207
    15   1 H        0.923     0.042     2.419     2.432
    16   1 H        0.923     0.035     2.510     2.478
    17   1 H        0.923     0.033     2.541     2.493
    18   1 H        0.923     0.042     2.427     2.436
    19   1 H        0.921     0.005     2.970     2.695
    20   1 H        0.805     0.321     0.660     1.276
    21   1 H        0.805     0.314     0.680     1.295
    22   1 H        0.805     0.316     0.674     1.290
    23   1 H        0.805     0.322     0.659     1.275
    24   1 H        0.805     0.300     0.720     1.333

 Mol. C6AA /au·bohr⁶  :       4718.295541
 Mol. C8AA /au·bohr⁸  :     100119.836939
 Mol. α(0) /au        :         98.324572


Wiberg/Mayer (AO) data.
largest (>0.10) Wiberg bond orders for each atom

 ---------------------------------------------------------------------------
     #   Z sym  total        # sym  WBO       # sym  WBO       # sym  WBO
 ---------------------------------------------------------------------------
     1   6 C    3.959 --    12 O    1.015     2 C    0.978    14 H    0.967
                            13 H    0.966
     2   6 C    3.939 --     1 C    0.978     3 C    0.970     7 O    0.957
                            15 H    0.956
     3   6 C    3.965 --    11 O    1.007     2 C    0.970     4 C    0.969
                            16 H    0.955
     4   6 C    3.963 --    10 O    0.999     5 C    0.972     3 C    0.969
                            17 H    0.955
     5   6 C    3.961 --     9 O    1.000     4 C    0.972    18 H    0.956
                             6 C    0.954
     6   6 C    3.931 --     8 O    1.009     7 O    0.968     5 C    0.954
                            19 H    0.943
     7   8 O    2.069 --     6 C    0.968     2 C    0.957
     8   8 O    1.974 --     6 C    1.009    20 H    0.877
     9   8 O    1.959 --     5 C    1.000    21 H    0.884
    10   8 O    1.957 --     4 C    0.999    22 H    0.882
    11   8 O    1.958 --     3 C    1.007    23 H    0.878
    12   8 O    1.969 --     1 C    1.015    24 H    0.894
    13   1 H    0.999 --     1 C    0.966
    14   1 H    0.993 --     1 C    0.967
    15   1 H    0.998 --     2 C    0.956
    16   1 H    0.999 --     3 C    0.955
    17   1 H    0.999 --     4 C    0.955
    18   1 H    0.998 --     5 C    0.956
    19   1 H    1.000 --     6 C    0.943
    20   1 H    0.896 --     8 O    0.877
    21   1 H    0.901 --     9 O    0.884
    22   1 H    0.900 --    10 O    0.882
    23   1 H    0.896 --    11 O    0.878
    24   1 H    0.910 --    12 O    0.894
 ---------------------------------------------------------------------------

Topologies differ in total number of bonds
Writing topology from bond orders to xtbtopo.mol

molecular dipole:
                 x           y           z       tot (Debye)
 q only:       -0.607      -0.322       0.127
   full:       -1.054      -0.592       0.130       3.090
molecular quadrupole (traceless):
                xx          xy          yy          xz          yz          zz
 q only:       -5.353       1.422       6.289       2.628       0.950      -0.936
  q+dip:      -11.175       1.277       6.440       4.316       0.578       4.735
   full:      -10.059       1.471       7.829       4.042       0.976       2.229

           -------------------------------------------------
          |                Geometry Summary                 |
           -------------------------------------------------

      molecular mass/u    :      180.1561339
   center of mass at/Å    :       -0.0537748      -0.0164727      -0.0052699
  moments of inertia/u·Å² :        0.4269472E+03   0.6431807E+03   0.1026369E+04
rotational constants/cm⁻¹ :        0.3948411E-01   0.2620979E-01   0.1642453E-01

 * 24 selected distances

     #   Z          #   Z                                           value/Å
     1   6 C        2   6 C                                       1.5316276
     2   6 C        3   6 C                                       1.5330585
     3   6 C        4   6 C                                       1.5338479
     4   6 C        5   6 C                                       1.5286817
     5   6 C        6   6 C                                       1.5357450 (max)
     2   6 C        7   8 O                                       1.4195958
     6   6 C        7   8 O                                       1.4021514
     6   6 C        8   8 O                                       1.3874423
     5   6 C        9   8 O                                       1.4048100
     4   6 C       10   8 O                                       1.4060527
     3   6 C       11   8 O                                       1.4004683
     1   6 C       12   8 O                                       1.3999491
     1   6 C       13   1 H                                       1.0986212
     1   6 C       14   1 H                                       1.0902378
     2   6 C       15   1 H                                       1.1010570
     3   6 C       16   1 H                                       1.1024295
     4   6 C       17   1 H                                       1.1028808
     5   6 C       18   1 H                                       1.1013293
     6   6 C       19   1 H                                       1.1123642
     8   8 O       20   1 H                                       0.9643860 (min)
     9   8 O       21   1 H                                       0.9647522
    10   8 O       22   1 H                                       0.9649110
    11   8 O       23   1 H                                       0.9662658
    12   8 O       24   1 H                                       0.9645746

 * 4 distinct bonds (by element types)

   Z      Z             #   av. dist./Å        max./Å        min./Å
   1 H    6 C           7     1.1012743     1.1123642     1.0902378
   6 C    6 C           5     1.5325921     1.5357450     1.5286817
   1 H    8 O           5     0.9649779     0.9662658     0.9643860
   6 C    8 O           7     1.4029242     1.4195958     1.3874423


optimized geometry written to: xtbopt.xyz


           -------------------------------------------------
          | TOTAL ENERGY              -43.362941699021 Eh   |
          | GRADIENT NORM               0.000388252417 Eh/α |
          | HOMO-LUMO GAP              10.468721897187 eV   |
           -------------------------------------------------

------------------------------------------------------------------------
 * finished run on 2026/09/17 at 00:11:27.567     
------------------------------------------------------------------------
 total:
 * wall-time:     0 d,  0 h,  0 min,  0.202 sec
 *  cpu-time:     0 d,  0 h,  0 min,  0.688 sec
 * ratio c/w:     3.403 speedup
 SCF:
 * wall-time:     0 d,  0 h,  0 min,  0.011 sec
 *  cpu-time:     0 d,  0 h,  0 min,  0.062 sec
 * ratio c/w:     5.682 speedup
 ANC optimizer:
 * wall-time:     0 d,  0 h,  0 min,  0.164 sec
 *  cpu-time:     0 d,  0 h,  0 min,  0.562 sec
 * ratio c/w:     3.430 speedup

