 Entering Gaussian System
 *********************************************
 Gaussian 98:
 frequency output generated by the xtb code
 *********************************************
                         Standard orientation:
 --------------------------------------------------------------------
  Center     Atomic     Atomic              Coordinates (Angstroms)
  Number     Number      Type              X           Y           Z
 --------------------------------------------------------------------
    1          6             0       -1.627315    0.281250    0.021126
    2          6             0       -0.699399    1.297452    0.163684
    3          6             0        0.654820    1.015074    0.139753
    4          6             0        1.088493   -0.294321   -0.028085
    5          6             0        0.155596   -1.316726   -0.171507
    6          6             0       -1.193798   -1.024199   -0.146196
    7          8             0        2.410084   -0.619590   -0.057969
    8          1             0       -2.683091    0.504809    0.040231
    9          1             0       -1.027521    2.318142    0.294613
   10          1             0        1.380289    1.810973    0.251394
   11          1             0        0.510199   -2.326941   -0.300802
   12          1             0       -1.912943   -1.821994   -0.258023
   13          1             0        2.944588    0.176071    0.051782
 --------------------------------------------------------------------
     1 basis functions        1 primitive gaussians
     1 alpha electrons        1 beta electrons
 
 Harmonic frequencies (cm**-1), IR intensities (km*mol⁻¹),
 Raman scattering activities (A**4/amu), Raman depolarization ratios,
 reduced masses (AMU), force constants (mDyne/A) and normal coordinates:
                      1                      2                      3
                        a                      a                      a 
 Frequencies --   216.9726               373.0334               382.7576
 Red. masses --    11.2000                 8.3827                11.4636
 Frc consts  --     0.0000                 0.0000                 0.0000
 IR Inten    --     0.0249                13.5431                10.0325
 Raman Activ --     0.0000                 0.0000                 0.0000
 Depolar     --     0.0000                 0.0000                 0.0000
 Atom AN      X      Y      Z        X      Y      Z        X      Y      Z
   1   6     0.00   0.06  -0.43     0.00   0.00  -0.01    -0.01  -0.14  -0.02
   2   6    -0.00  -0.00   0.02     0.00   0.05  -0.41    -0.14  -0.02  -0.00
   3   6    -0.00  -0.05   0.41    -0.00  -0.05   0.40    -0.01   0.35   0.04
   4   6    -0.00  -0.03   0.21     0.00   0.00  -0.02     0.05   0.36   0.05
   5   6    -0.00  -0.05   0.41     0.00   0.05  -0.38     0.16   0.28   0.04
   6   6    -0.00  -0.00   0.01    -0.00  -0.06   0.42     0.13  -0.10  -0.01
   7   8     0.00   0.07  -0.51     0.00   0.01  -0.08    -0.20  -0.58  -0.08
   8   1     0.00   0.04  -0.28     0.00   0.00  -0.01    -0.01  -0.07  -0.01
   9   1     0.00   0.00  -0.01     0.00   0.03  -0.25    -0.11  -0.03  -0.00
  10   1    -0.00  -0.02   0.17    -0.00  -0.03   0.25    -0.06   0.15   0.02
  11   1    -0.00  -0.02   0.17     0.00   0.03  -0.23     0.14   0.11   0.02
  12   1     0.00   0.00  -0.02    -0.00  -0.04   0.27     0.09  -0.07  -0.01
  13   1     0.00   0.02  -0.17    -0.00  -0.04   0.28     0.15  -0.28  -0.03
                      4                      5                      6
                        a                      a                      a 
 Frequencies --   432.7483               482.9920               499.9657
 Red. masses --     2.8389                 9.5622                12.4552
 Frc consts  --     0.0000                 0.0000                 0.0000
 IR Inten    --   148.9944                 4.5056                 1.1172
 Raman Activ --     0.0000                 0.0000                 0.0000
 Depolar     --     0.0000                 0.0000                 0.0000
 Atom AN      X      Y      Z        X      Y      Z        X      Y      Z
   1   6    -0.00  -0.01   0.06     0.00   0.05  -0.38     0.47  -0.09  -0.01
   2   6     0.00   0.02  -0.13    -0.00  -0.04   0.28     0.19   0.18   0.03
   3   6    -0.00  -0.02   0.15     0.00   0.00  -0.01     0.13   0.19   0.03
   4   6    -0.00  -0.02   0.13     0.01   0.08  -0.60    -0.36   0.05   0.00
   5   6     0.00   0.03  -0.19     0.00   0.01  -0.05     0.03  -0.27  -0.04
   6   6     0.00  -0.01   0.05    -0.00  -0.04   0.29     0.10  -0.23  -0.03
   7   8    -0.00  -0.03   0.22    -0.00  -0.03   0.26    -0.53   0.14   0.01
   8   1    -0.00  -0.00   0.02     0.00   0.02  -0.13     0.13  -0.02  -0.00
   9   1     0.00   0.01  -0.11    -0.00  -0.04   0.27    -0.02   0.03   0.00
  10   1    -0.00  -0.01   0.04    -0.00  -0.02   0.18     0.12  -0.02  -0.00
  11   1     0.00   0.02  -0.14    -0.00  -0.02   0.16     0.11  -0.04  -0.00
  12   1     0.00   0.00  -0.00    -0.00  -0.04   0.28    -0.04  -0.00  -0.00
  13   1     0.01   0.12  -0.90     0.00   0.02  -0.12    -0.14   0.04   0.00
                      7                      8                      9
                        a                      a                      a 
 Frequencies --   592.3282               656.1659               759.5115
 Red. masses --    11.2675                10.0451                 4.2081
 Frc consts  --     0.0000                 0.0000                 0.0000
 IR Inten    --     0.2902                 0.3572                47.1852
 Raman Activ --     0.0000                 0.0000                 0.0000
 Depolar     --     0.0000                 0.0000                 0.0000
 Atom AN      X      Y      Z        X      Y      Z        X      Y      Z
   1   6     0.02   0.17   0.02     0.00   0.04  -0.33    -0.00  -0.02   0.16
   2   6    -0.30   0.40   0.05    -0.00  -0.05   0.37    -0.00  -0.02   0.14
   3   6    -0.39  -0.17  -0.03     0.00   0.04  -0.32    -0.00  -0.03   0.21
   4   6    -0.02  -0.13  -0.02    -0.00  -0.06   0.48     0.00   0.05  -0.38
   5   6     0.28  -0.31  -0.04     0.00   0.04  -0.31    -0.00  -0.02   0.18
   6   6     0.43   0.25   0.04    -0.00  -0.05   0.37    -0.00  -0.02   0.12
   7   8    -0.03  -0.15  -0.02     0.00   0.01  -0.06    -0.00  -0.01   0.09
   8   1    -0.03  -0.12  -0.02     0.00   0.03  -0.23     0.00   0.06  -0.48
   9   1    -0.03   0.13   0.02    -0.00  -0.00   0.01     0.00   0.05  -0.37
  10   1    -0.07  -0.08  -0.01     0.00   0.03  -0.25     0.00   0.05  -0.36
  11   1     0.03  -0.10  -0.01     0.00   0.03  -0.25     0.00   0.04  -0.30
  12   1     0.08   0.10   0.01    -0.00  -0.00   0.01     0.00   0.05  -0.35
  13   1     0.02  -0.06  -0.01    -0.00  -0.00   0.03    -0.00  -0.00   0.03
                     10                     11                     12
                        a                      a                      a 
 Frequencies --   822.2170               865.9826               882.6213
 Red. masses --    12.0211                 3.3411                 3.6310
 Frc consts  --     0.0000                 0.0000                 0.0000
 IR Inten    --    24.1904                 0.0184                 2.1722
 Raman Activ --     0.0000                 0.0000                 0.0000
 Depolar     --     0.0000                 0.0000                 0.0000
 Atom AN      X      Y      Z        X      Y      Z        X      Y      Z
   1   6     0.30  -0.06  -0.01    -0.00  -0.01   0.10     0.00   0.04  -0.31
   2   6    -0.17   0.43   0.06     0.00   0.02  -0.13     0.00   0.01  -0.11
   3   6    -0.14   0.19   0.02     0.00   0.04  -0.33    -0.00  -0.02   0.17
   4   6     0.02  -0.01  -0.00    -0.00  -0.00   0.00     0.00   0.01  -0.08
   5   6    -0.20  -0.12  -0.02    -0.00  -0.03   0.20    -0.00  -0.04   0.29
   6   6    -0.33  -0.32  -0.05    -0.00  -0.02   0.18    -0.00  -0.01   0.04
   7   8     0.50  -0.11  -0.01    -0.00  -0.00  -0.00    -0.00  -0.00   0.02
   8   1     0.08  -0.02  -0.00     0.00   0.02  -0.17    -0.00  -0.07   0.50
   9   1    -0.17   0.08   0.01    -0.00  -0.03   0.24    -0.00  -0.04   0.28
  10   1    -0.02   0.04   0.01    -0.01  -0.08   0.63     0.00   0.04  -0.31
  11   1    -0.03  -0.03  -0.00     0.00   0.05  -0.38     0.01   0.07  -0.57
  12   1    -0.19  -0.01  -0.00     0.00   0.05  -0.39     0.00   0.00  -0.01
  13   1     0.11  -0.02  -0.00    -0.00   0.00  -0.00    -0.00  -0.00   0.00
                     13                     14                     15
                        a                      a                      a 
 Frequencies --   921.8502               927.1116               986.9639
 Red. masses --     3.8705                 2.9833                10.8083
 Frc consts  --     0.0000                 0.0000                 0.0000
 IR Inten    --     0.1350                 0.0579                 4.1823
 Raman Activ --     0.0000                 0.0000                 0.0000
 Depolar     --     0.0000                 0.0000                 0.0000
 Atom AN      X      Y      Z        X      Y      Z        X      Y      Z
   1   6     0.00   0.02  -0.12     0.00   0.03  -0.23    -0.36   0.08   0.01
   2   6    -0.00  -0.05   0.35    -0.00  -0.01   0.10    -0.01  -0.14  -0.02
   3   6     0.00   0.02  -0.18    -0.00  -0.00   0.03     0.29   0.49   0.07
   4   6     0.00   0.01  -0.04     0.00   0.01  -0.07    -0.12   0.03   0.00
   5   6    -0.00  -0.03   0.20     0.00   0.02  -0.12     0.05  -0.57  -0.08
   6   6     0.00   0.03  -0.21    -0.00  -0.04   0.30     0.05   0.13   0.02
   7   8     0.00  -0.00   0.01     0.00   0.00  -0.00     0.15  -0.02  -0.00
   8   1    -0.00  -0.03   0.23    -0.00  -0.06   0.47    -0.10   0.03   0.00
   9   1     0.01   0.08  -0.63     0.00   0.04  -0.28    -0.10  -0.06  -0.01
  10   1    -0.00  -0.04   0.33    -0.00  -0.01   0.08     0.02   0.19   0.03
  11   1     0.00   0.04  -0.27    -0.00  -0.04   0.32    -0.06  -0.18  -0.02
  12   1    -0.00  -0.04   0.31     0.01   0.08  -0.63    -0.07   0.10   0.01
  13   1     0.00   0.00  -0.01    -0.00  -0.00   0.00     0.06  -0.02  -0.00
                     16                     17                     18
                        a                      a                      a 
 Frequencies --  1077.6240              1108.2670              1148.5867
 Red. masses --     6.3475                 4.5028                 3.0097
 Frc consts  --     0.0000                 0.0000                 0.0000
 IR Inten    --     0.7394                20.0672               143.2727
 Raman Activ --     0.0000                 0.0000                 0.0000
 Depolar     --     0.0000                 0.0000                 0.0000
 Atom AN      X      Y      Z        X      Y      Z        X      Y      Z
   1   6     0.42  -0.14  -0.01     0.15   0.17   0.02     0.01   0.02   0.00
   2   6    -0.03  -0.30  -0.04     0.06  -0.26  -0.03     0.04  -0.02  -0.00
   3   6    -0.12   0.07   0.01    -0.26  -0.14  -0.02    -0.04   0.09   0.01
   4   6     0.01  -0.03  -0.00     0.01   0.19   0.02    -0.07  -0.17  -0.02
   5   6    -0.17   0.09   0.01     0.10  -0.19  -0.02     0.08   0.06   0.01
   6   6     0.16   0.34   0.05    -0.11  -0.04  -0.01    -0.03   0.05   0.01
   7   8     0.02  -0.02  -0.00    -0.03   0.08   0.01     0.15  -0.26  -0.03
   8   1     0.11  -0.10  -0.01     0.11   0.38   0.05     0.02   0.07   0.01
   9   1    -0.31  -0.19  -0.03     0.18  -0.03  -0.00    -0.01  -0.01  -0.00
  10   1    -0.21   0.17   0.02    -0.33   0.18   0.02    -0.23   0.22   0.03
  11   1    -0.45  -0.11  -0.02     0.33   0.05   0.01     0.37   0.14   0.02
  12   1    -0.11   0.24   0.03    -0.29   0.22   0.03    -0.05   0.05   0.01
  13   1    -0.05   0.03   0.00     0.27  -0.17  -0.02    -0.65   0.40   0.05
                     19                     20                     21
                        a                      a                      a 
 Frequencies --  1179.0769              1188.1181              1266.8013
 Red. masses --     1.5706                 1.7485                 9.7175
 Frc consts  --     0.0000                 0.0000                 0.0000
 IR Inten    --     0.3000                 6.8336               137.2634
 Raman Activ --     0.0000                 0.0000                 0.0000
 Depolar     --     0.0000                 0.0000                 0.0000
 Atom AN      X      Y      Z        X      Y      Z        X      Y      Z
   1   6    -0.01  -0.09  -0.01     0.00  -0.02  -0.00     0.11  -0.02  -0.00
   2   6    -0.00  -0.02  -0.00     0.11   0.09   0.01     0.11  -0.18  -0.02
   3   6     0.11  -0.05  -0.01    -0.05   0.07   0.01    -0.18   0.05   0.01
   4   6    -0.03   0.06   0.01     0.09   0.03   0.00    -0.63   0.07   0.00
   5   6    -0.09   0.04   0.00    -0.06  -0.05  -0.01    -0.24   0.02   0.00
   6   6    -0.03   0.10   0.01     0.02  -0.14  -0.02     0.14   0.19   0.03
   7   8     0.03   0.03   0.00    -0.06  -0.01  -0.00     0.37  -0.04  -0.00
   8   1    -0.14  -0.69  -0.09    -0.04  -0.19  -0.03     0.03  -0.05  -0.01
   9   1     0.23   0.07   0.01     0.60   0.21   0.03     0.21   0.00   0.00
  10   1     0.06  -0.04  -0.00    -0.40   0.36   0.04     0.06  -0.10  -0.01
  11   1     0.25   0.11   0.02    -0.36  -0.13  -0.02     0.16   0.09   0.01
  12   1    -0.40   0.37   0.05     0.15  -0.17  -0.02     0.32  -0.19  -0.02
  13   1     0.06  -0.03  -0.00    -0.05   0.02   0.00     0.14  -0.06  -0.01
                     22                     23                     24
                        a                      a                      a 
 Frequencies --  1293.2834              1336.5798              1453.5432
 Red. masses --     4.1560                11.3480                 8.9384
 Frc consts  --     0.0000                 0.0000                 0.0000
 IR Inten    --    47.1687                21.9240                19.4016
 Raman Activ --     0.0000                 0.0000                 0.0000
 Depolar     --     0.0000                 0.0000                 0.0000
 Atom AN      X      Y      Z        X      Y      Z        X      Y      Z
   1   6    -0.05  -0.25  -0.03    -0.09  -0.36  -0.05     0.06   0.38   0.05
   2   6    -0.05  -0.08  -0.01     0.41   0.15   0.02     0.31  -0.15  -0.02
   3   6    -0.22   0.17   0.02    -0.27   0.22   0.03    -0.30  -0.06  -0.01
   4   6    -0.09   0.16   0.02    -0.04  -0.40  -0.05     0.04   0.38   0.05
   5   6     0.23   0.08   0.01     0.35   0.09   0.01     0.27  -0.14  -0.02
   6   6     0.06  -0.05  -0.01    -0.33   0.27   0.03    -0.31  -0.06  -0.01
   7   8     0.10  -0.12  -0.01    -0.07   0.08   0.01     0.04  -0.10  -0.01
   8   1     0.06   0.28   0.04    -0.01  -0.04  -0.01    -0.08  -0.34  -0.04
   9   1     0.39   0.10   0.02    -0.05  -0.01  -0.00    -0.16  -0.13  -0.02
  10   1     0.33  -0.30  -0.04    -0.06   0.05   0.01     0.07  -0.16  -0.02
  11   1    -0.30  -0.10  -0.02     0.05   0.01   0.00    -0.14  -0.12  -0.02
  12   1    -0.27   0.24   0.03     0.02  -0.03  -0.00     0.06  -0.15  -0.02
  13   1    -0.18   0.11   0.01     0.19  -0.12  -0.01    -0.16   0.09   0.01
                     25                     26                     27
                        a                      a                      a 
 Frequencies --  1480.3294              1596.2185              1607.4928
 Red. masses --     9.3384                11.4792                11.5106
 Frc consts  --     0.0000                 0.0000                 0.0000
 IR Inten    --    80.1191                14.0541                73.2257
 Raman Activ --     0.0000                 0.0000                 0.0000
 Depolar     --     0.0000                 0.0000                 0.0000
 Atom AN      X      Y      Z        X      Y      Z        X      Y      Z
   1   6    -0.26   0.05   0.00    -0.10  -0.50  -0.07    -0.21   0.00  -0.00
   2   6     0.29   0.20   0.03     0.17   0.26   0.04     0.45   0.05   0.01
   3   6     0.12  -0.27  -0.03     0.10  -0.33  -0.04    -0.39   0.20   0.02
   4   6    -0.46   0.05   0.00     0.08   0.52   0.07     0.29  -0.02  -0.00
   5   6     0.19   0.23   0.03    -0.15  -0.24  -0.03    -0.48  -0.05  -0.01
   6   6     0.23  -0.30  -0.04    -0.09   0.31   0.04     0.39  -0.19  -0.02
   7   8     0.14  -0.01  -0.00     0.02  -0.06  -0.01    -0.04   0.00  -0.00
   8   1    -0.07   0.03   0.00     0.02   0.11   0.01    -0.05   0.02   0.00
   9   1    -0.24  -0.04  -0.01    -0.07   0.03   0.00    -0.09  -0.05  -0.01
  10   1    -0.21   0.13   0.02    -0.08   0.01   0.00     0.06  -0.08  -0.01
  11   1    -0.22  -0.02  -0.00     0.05  -0.03  -0.00     0.09   0.06   0.01
  12   1    -0.21   0.15   0.02     0.08  -0.01  -0.00    -0.05   0.08   0.01
  13   1     0.06  -0.03  -0.00    -0.10   0.06   0.01    -0.02   0.01   0.00
                     28                     29                     30
                        a                      a                      a 
 Frequencies --  3051.8616              3079.7550              3083.7134
 Red. masses --     1.8069                 1.7689                 1.8314
 Frc consts  --     0.0000                 0.0000                 0.0000
 IR Inten    --    38.0166                 2.7297                51.3869
 Raman Activ --     0.0000                 0.0000                 0.0000
 Depolar     --     0.0000                 0.0000                 0.0000
 Atom AN      X      Y      Z        X      Y      Z        X      Y      Z
   1   6     0.00   0.00   0.00     0.15  -0.03  -0.00     0.01  -0.00  -0.00
   2   6    -0.01   0.04   0.01    -0.05   0.16   0.02     0.06  -0.17  -0.02
   3   6    -0.18  -0.20  -0.03     0.02   0.03   0.00    -0.03  -0.03  -0.00
   4   6    -0.01   0.00  -0.00     0.00  -0.00  -0.00    -0.00   0.00   0.00
   5   6     0.00  -0.00  -0.00    -0.01   0.02   0.00    -0.01   0.04   0.00
   6   6     0.00   0.00   0.00    -0.09  -0.10  -0.01    -0.14  -0.15  -0.02
   7   8     0.00  -0.00  -0.00    -0.00   0.00   0.00     0.00  -0.00  -0.00
   8   1    -0.01   0.00  -0.00    -0.55   0.12   0.01    -0.04   0.01   0.00
   9   1     0.06  -0.18  -0.02     0.18  -0.56  -0.07    -0.19   0.58   0.07
  10   1     0.63   0.70   0.10    -0.08  -0.09  -0.01     0.08   0.09   0.01
  11   1    -0.01   0.01   0.00     0.03  -0.08  -0.01     0.05  -0.15  -0.02
  12   1    -0.00  -0.00  -0.00     0.32   0.36   0.05     0.47   0.53   0.07
  13   1     0.01   0.00   0.00    -0.00  -0.00  -0.00     0.00   0.00   0.00
                     31                     32                     33
                        a                      a                      a 
 Frequencies --  3096.7109              3109.5522              3518.7226
 Red. masses --     1.8941                 1.8656                 1.8625
 Frc consts  --     0.0000                 0.0000                 0.0000
 IR Inten    --    53.7946                19.5135                19.7044
 Raman Activ --     0.0000                 0.0000                 0.0000
 Depolar     --     0.0000                 0.0000                 0.0000
 Atom AN      X      Y      Z        X      Y      Z        X      Y      Z
   1   6    -0.22   0.05   0.00    -0.04   0.01   0.00     0.00   0.00   0.00
   2   6    -0.04   0.11   0.01    -0.00   0.01   0.00    -0.00  -0.00  -0.00
   3   6     0.02   0.02   0.00     0.00   0.01   0.00     0.00   0.00   0.00
   4   6    -0.00   0.00   0.00     0.01  -0.00  -0.00    -0.01  -0.00  -0.00
   5   6    -0.02   0.06   0.01     0.09  -0.25  -0.03     0.00   0.00   0.00
   6   6    -0.07  -0.08  -0.01    -0.05  -0.06  -0.01    -0.00  -0.00  -0.00
   7   8    -0.00  -0.00  -0.00    -0.00   0.00   0.00    -0.13  -0.20  -0.03
   8   1     0.75  -0.16  -0.01     0.12  -0.03  -0.00    -0.00   0.00   0.00
   9   1     0.12  -0.37  -0.05     0.01  -0.04  -0.00     0.00  -0.00  -0.00
  10   1    -0.05  -0.05  -0.01    -0.01  -0.02  -0.00    -0.01  -0.00  -0.00
  11   1     0.07  -0.20  -0.03    -0.30   0.86   0.11    -0.00   0.01   0.00
  12   1     0.23   0.26   0.04     0.16   0.18   0.03    -0.00   0.00   0.00
  13   1     0.00   0.00   0.00    -0.00  -0.00  -0.00     0.55   0.79   0.11
