      -----------------------------------------------------------      
     |                   =====================                   |     
     |                           x T B                           |     
     |                   =====================                   |     
     |                         S. Grimme                         |     
     |          Mulliken Center for Theoretical Chemistry        |     
     |                    University of Bonn                     |     
      -----------------------------------------------------------      

   * xtb version 6.7.1pre (5071a88) compiled by 'Marcel@Raven' on 2024-07-23

   xtb is free software: you can redistribute it and/or modify it under
   the terms of the GNU Lesser General Public License as published by
   the Free Software Foundation, either version 3 of the License, or
   (at your option) any later version.
   
   xtb is distributed in the hope that it will be useful,
   but WITHOUT ANY WARRANTY; without even the implied warranty of
   MERCHANTABILITY or FITNESS FOR A PARTICULAR PURPOSE.  See the
   GNU Lesser General Public License for more details.
   
   Cite this work as:
   * C. Bannwarth, E. Caldeweyher, S. Ehlert, A. Hansen, P. Pracht,
     J. Seibert, S. Spicher, S. Grimme, WIREs Comput. Mol. Sci., 2020, 11,
     e01493. DOI: 10.1002/wcms.1493
   
   for GFN2-xTB:
   * C. Bannwarth, S. Ehlert and S. Grimme., J. Chem. Theory Comput., 2019,
     15, 1652-1671. DOI: 10.1021/acs.jctc.8b01176
   for GFN1-xTB:
   * S. Grimme, C. Bannwarth, P. Shushkov, J. Chem. Theory Comput., 2017,
     13, 1989-2009. DOI: 10.1021/acs.jctc.7b00118
   for GFN0-xTB:
   * P. Pracht, E. Caldeweyher, S. Ehlert, S. Grimme, ChemRxiv, 2019, preprint.
     DOI: 10.26434/chemrxiv.8326202.v1
   for GFN-FF:
   * S. Spicher and S. Grimme, Angew. Chem. Int. Ed., 2020, 59, 15665-15673.
     DOI: 10.1002/anie.202004239
   
   for ALPB and GBSA implicit solvation:
   * S. Ehlert, M. Stahn, S. Spicher, S. Grimme, J. Chem. Theory Comput.,
     2021, 17, 4250-4261. DOI: 10.1021/acs.jctc.1c00471
   
   for ddCOSMO and CPCM-X implicit solvation:
   * M. Stahn, S. Ehlert, S. Grimme, J. Phys. Chem. A,
     2023, XX, XXXX-XXXX. DOI: 10.1021/acs.jpca.3c04382
   
   for DFT-D4:
   * E. Caldeweyher, C. Bannwarth and S. Grimme, J. Chem. Phys., 2017,
     147, 034112. DOI: 10.1063/1.4993215
   * E. Caldeweyher, S. Ehlert, A. Hansen, H. Neugebauer, S. Spicher,
     C. Bannwarth and S. Grimme, J. Chem. Phys., 2019, 150, 154122.
     DOI: 10.1063/1.5090222
   * E. Caldeweyher, J.-M. Mewes, S. Ehlert and S. Grimme, Phys. Chem. Chem. Phys.
     2020, 22, 8499-8512. DOI: 10.1039/D0CP00502A
   
   for sTDA-xTB:
   * S. Grimme and C. Bannwarth, J. Chem. Phys., 2016, 145, 054103.
     DOI: 10.1063/1.4959605
   
   in the mass-spec context:
   * V. Asgeirsson, C. Bauer and S. Grimme, Chem. Sci., 2017, 8, 4879.
     DOI: 10.1039/c7sc00601b
   * J. Koopman and S. Grimme, ACS Omega 2019, 4, 12, 15120-15133.
     DOI: 10.1021/acsomega.9b02011
   
   for metadynamics refer to:
   * S. Grimme, J. Chem. Theory Comput., 2019, 155, 2847-2862
     DOI: 10.1021/acs.jctc.9b00143
   
   for SPH calculations refer to:
   * S. Spicher and S. Grimme, J. Chem. Theory Comput., 2021, 17, 1701-1714
     DOI: 10.1021/acs.jctc.0c01306
   
   for ONIOM refer to:
   * C. Plett, A. Katbashev, S. Ehlert, S. Grimme, M. Bursch,
     Phys. Chem. Chem. Phys., 2023, 25, 17860-17868. DOI: 10.1039/D3CP02178E
   
   for DIPRO refer to:
   * J. Kohn, N. Gildemeister, S. Grimme, D. Fazzi, A. Hansen,
     J. Chem. Phys., 2023, just accepted.
   
   for PTB refer to:
   * S. Grimme, M. Mueller, A. Hansen, J. Chem. Phys., 2023, 158, 124111.
     DOI: 10.1063/5.0137838
   
   with help from (in alphabetical order)
   P. Atkinson, C. Bannwarth, F. Bohle, G. Brandenburg, E. Caldeweyher
   M. Checinski, S. Dohm, S. Ehlert, S. Ehrlich, I. Gerasimov, C. Hölzer
   A. Katbashev, J. Kohn, J. Koopman, C. Lavigne, S. Lehtola, F. März, M. Müller,
   F. Musil, H. Neugebauer, J. Pisarek, C. Plett, P. Pracht, F. Pultar,
   J. Seibert, P. Shushkov, S. Spicher, M. Stahn, M. Steiner, T. Strunk,
   J. Stückrath, T. Rose, and J. Unsleber
   
 * started run on 2026/09/17 at 00:40:25.636     
   ID    Z sym.   atoms
    1    6 C      1-6
    2    8 O      7
    3    1 H      8-13

           -------------------------------------------------
          |                Calculation Setup                |
           -------------------------------------------------

          program call               : C:\ORCA_6.1.1\xtb-6.7.1pre\xtb.exe optimized.xyz --gfn 2 --chrg 0 --uhf 0 --hess --json
          coordinate file            : optimized.xyz
          omp threads                :                     4


           -------------------------------------------------
          |                 G F N 2 - x T B                 |
           -------------------------------------------------

        Reference                      10.1021/acs.jctc.8b01176
      * Hamiltonian:
        H0-scaling (s, p, d)           1.850000    2.230000    2.230000
        zeta-weighting                 0.500000
      * Dispersion:
        s8                             2.700000
        a1                             0.520000
        a2                             5.000000
        s9                             5.000000
      * Repulsion:
        kExp                           1.500000    1.000000
        rExp                           1.000000
      * Coulomb:
        alpha                          2.000000
        third order                    shell-resolved
        anisotropic                    true
        a3                             3.000000
        a5                             4.000000
        cn-shift                       1.200000
        cn-exp                         4.000000
        max-rad                        5.000000


          ...................................................
          :                      SETUP                      :
          :.................................................:
          :  # basis functions                  34          :
          :  # atomic orbitals                  34          :
          :  # shells                           20          :
          :  # electrons                        36          :
          :  max. iterations                   250          :
          :  Hamiltonian                  GFN2-xTB          :
          :  restarted?                      false          :
          :  GBSA solvation                  false          :
          :  PC potential                    false          :
          :  electronic temp.          300.0000000     K    :
          :  accuracy                    1.0000000          :
          :  -> integral cutoff          0.2500000E+02      :
          :  -> integral neglect         0.1000000E-07      :
          :  -> SCF convergence          0.1000000E-05 Eh   :
          :  -> wf. convergence          0.1000000E-03 e    :
          :  Broyden damping             0.4000000          :
          :  net charge                          0          :
          :  unpaired electrons                  0          :
          ...................................................

 iter      E             dE          RMSdq      gap      omega  full diag
   1    -20.2624869 -0.202625E+02  0.470E+00    4.25       0.0  T
   2    -20.2756980 -0.132111E-01  0.285E+00    4.32       1.0  T
   3    -20.2706944  0.500360E-02  0.115E+00    4.29       1.0  T
   4    -20.2784031 -0.770870E-02  0.238E-01    4.35       1.0  T
   5    -20.2785916 -0.188524E-03  0.742E-02    4.37       1.0  T
   6    -20.2786107 -0.191073E-04  0.376E-02    4.35       1.0  T
   7    -20.2786136 -0.293567E-05  0.109E-02    4.35       2.6  T
   8    -20.2786137 -0.508018E-07  0.428E-03    4.35       6.5  T
   9    -20.2786139 -0.169170E-06  0.162E-03    4.35      17.1  T
  10    -20.2786139 -0.450040E-08  0.409E-04    4.35      67.8  T
  11    -20.2786139 -0.865846E-09  0.158E-04    4.35     176.0  T

   *** convergence criteria satisfied after 11 iterations ***

         #    Occupation            Energy/Eh            Energy/eV
      -------------------------------------------------------------
         1        2.0000           -0.7098752             -19.3167
       ...           ...                  ...                  ...
        12        2.0000           -0.4799546             -13.0602
        13        2.0000           -0.4757700             -12.9464
        14        2.0000           -0.4600569             -12.5188
        15        2.0000           -0.4355637             -11.8523
        16        2.0000           -0.4223507             -11.4927
        17        2.0000           -0.4049106             -11.0182
        18        2.0000           -0.3832094             -10.4277 (HOMO)
        19                         -0.2232708              -6.0755 (LUMO)
        20                         -0.2129724              -5.7953
        21                         -0.0878513              -2.3906
        22                          0.0708117               1.9269
        23                          0.1156338               3.1466
       ...                                ...                  ...
        34                          0.6709720              18.2581
      -------------------------------------------------------------
                  HL-Gap            0.1599385 Eh            4.3521 eV
             Fermi-level           -0.3032401 Eh           -8.2516 eV

 SCC (total)                   0 d,  0 h,  0 min,  0.007 sec
 SCC setup                      ...        0 min,  0.000 sec (  0.000%)
 Dispersion                     ...        0 min,  0.000 sec (  0.000%)
 classical contributions        ...        0 min,  0.000 sec (  0.000%)
 integral evaluation            ...        0 min,  0.001 sec ( 14.285%)
 iterations                     ...        0 min,  0.005 sec ( 71.431%)
 molecular gradient             ...        0 min,  0.001 sec ( 14.285%)
 printout                       ...        0 min,  0.000 sec (  0.000%)

         :::::::::::::::::::::::::::::::::::::::::::::::::::::
         ::                     SUMMARY                     ::
         :::::::::::::::::::::::::::::::::::::::::::::::::::::
         :: total energy             -19.954146323103 Eh    ::
         :: gradient norm              0.000059523622 Eh/a0 ::
         :: HOMO-LUMO gap              4.352148663867 eV    ::
         ::.................................................::
         :: SCC energy               -20.278603188117 Eh    ::
         :: -> isotropic ES            0.021166544553 Eh    ::
         :: -> anisotropic ES          0.003328431286 Eh    ::
         :: -> anisotropic XC          0.008630732519 Eh    ::
         :: -> dispersion             -0.009085903822 Eh    ::
         :: repulsion energy           0.324456865014 Eh    ::
         :: add. restraining           0.000000000000 Eh    ::
         :: total charge              -0.000000000000 e     ::
         :::::::::::::::::::::::::::::::::::::::::::::::::::::

           ------------------------------------------------- 
          |                Numerical Hessian                |
           ------------------------------------------------- 
step length          :   0.00500
SCC accuracy         :   0.30000
Hessian scale factor :   1.00000
frozen atoms in %    :   0.00000    0
RMS gradient         :   0.00006
estimated CPU  time      0.02 min
estimated wall time      0.01 min

writing file <hessian>.

 projected vibrational frequencies (cm⁻¹)
eigval :       -0.00    -0.00     0.00     0.00     0.00     0.00
eigval :      216.97   373.03   382.76   432.75   482.99   499.97
eigval :      592.33   656.17   759.51   822.22   865.98   882.62
eigval :      921.85   927.11   986.96  1077.62  1108.27  1148.59
eigval :     1179.08  1188.12  1266.80  1293.28  1336.58  1453.54
eigval :     1480.33  1596.22  1607.49  3051.86  3079.76  3083.71
eigval :     3096.71  3109.55  3518.72
           -------------------------------------------------
          |                Property Printout                |
           -------------------------------------------------

    * Orbital Energies and Occupations

         #    Occupation            Energy/Eh            Energy/eV
      -------------------------------------------------------------
         1        2.0000           -0.7098746             -19.3167
       ...           ...                  ...                  ...
         6        2.0000           -0.5797177             -15.7749
         7        2.0000           -0.5530745             -15.0499
         8        2.0000           -0.5340647             -14.5326
         9        2.0000           -0.5221525             -14.2085
        10        2.0000           -0.5125504             -13.9472
        11        2.0000           -0.4873726             -13.2621
        12        2.0000           -0.4799546             -13.0602
        13        2.0000           -0.4757698             -12.9464
        14        2.0000           -0.4600570             -12.5188
        15        2.0000           -0.4355638             -11.8523
        16        2.0000           -0.4223506             -11.4927
        17        2.0000           -0.4049107             -11.0182
        18        2.0000           -0.3832093             -10.4277 (HOMO)
        19                         -0.2232709              -6.0755 (LUMO)
        20                         -0.2129725              -5.7953
        21                         -0.0878513              -2.3906
        22                          0.0708123               1.9269
        23                          0.1156340               3.1466
        24                          0.1494322               4.0663
        25                          0.1630841               4.4377
        26                          0.1917874               5.2188
        27                          0.1963199               5.3421
        28                          0.2125872               5.7848
        29                          0.3999143              10.8822
       ...                                ...                  ...
        34                          0.6709720              18.2581
      -------------------------------------------------------------
                  HL-Gap            0.1599384 Eh            4.3521 eV
             Fermi-level           -0.3032401 Eh           -8.2516 eV

     #   Z          covCN         q      C6AA      α(0)
     1   6 C        2.919    -0.042    29.035     8.836
     2   6 C        2.921    -0.030    28.745     8.792
     3   6 C        2.919    -0.070    29.738     8.942
     4   6 C        2.847     0.146    24.820     8.165
     5   6 C        2.919    -0.053    29.317     8.879
     6   6 C        2.921    -0.029    28.735     8.791
     7   8 O        1.660    -0.394    20.727     6.146
     8   1 H        0.926     0.032     2.558     2.501
     9   1 H        0.926     0.033     2.550     2.497
    10   1 H        0.925     0.024     2.668     2.555
    11   1 H        0.926     0.049     2.336     2.390
    12   1 H        0.926     0.036     2.504     2.475
    13   1 H        0.805     0.298     0.727     1.339

 Mol. C6AA /au·bohr⁶  :       2046.285788
 Mol. C8AA /au·bohr⁸  :      49548.348493
 Mol. α(0) /au        :         72.308594


Wiberg/Mayer (AO) data.
largest (>0.10) Wiberg bond orders for each atom

 ---------------------------------------------------------------------------
     #   Z sym  total        # sym  WBO       # sym  WBO       # sym  WBO
 ---------------------------------------------------------------------------
     1   6 C    3.992 --     2 C    1.441     6 C    1.428     8 H    0.972
     2   6 C    3.992 --     3 C    1.444     1 C    1.441     9 H    0.971
                             5 C    0.110
     3   6 C    3.988 --     2 C    1.444     4 C    1.377    10 H    0.967
                             6 C    0.106
     4   6 C    3.938 --     3 C    1.377     5 C    1.364     7 O    1.070
     5   6 C    3.989 --     6 C    1.459     4 C    1.364    11 H    0.969
                             2 C    0.110
     6   6 C    3.992 --     5 C    1.459     1 C    1.428    12 H    0.971
                             3 C    0.106
     7   8 O    2.119 --     4 C    1.070    13 H    0.890
     8   1 H    0.999 --     1 C    0.972
     9   1 H    0.999 --     2 C    0.971
    10   1 H    0.999 --     3 C    0.967
    11   1 H    0.998 --     5 C    0.969
    12   1 H    0.999 --     6 C    0.971
    13   1 H    0.911 --     7 O    0.890
 ---------------------------------------------------------------------------

Topologies differ in total number of bonds
Writing topology from bond orders to xtbtopo.mol

molecular dipole:
                 x           y           z       tot (Debye)
 q only:        0.052       0.357       0.047
   full:        0.128       0.576       0.077       1.513
molecular quadrupole (traceless):
                xx          xy          yy          xz          yz          zz
 q only:        2.103       3.630      -0.350       0.515       0.224      -1.753
  q+dip:        3.503       5.479       1.513       0.804       0.928      -5.015
   full:        2.722       5.442       0.126       0.770       0.452      -2.847

           -------------------------------------------------
          |               Frequency Printout                |
           -------------------------------------------------
 projected vibrational frequencies (cm⁻¹)
eigval :       -0.00    -0.00     0.00     0.00     0.00     0.00
eigval :      216.97   373.03   382.76   432.75   482.99   499.97
eigval :      592.33   656.17   759.51   822.22   865.98   882.62
eigval :      921.85   927.11   986.96  1077.62  1108.27  1148.59
eigval :     1179.08  1188.12  1266.80  1293.28  1336.58  1453.54
eigval :     1480.33  1596.22  1607.49  3051.86  3079.76  3083.71
eigval :     3096.71  3109.55  3518.72
 reduced masses (amu)
   1: 12.30   2: 11.78   3: 11.57   4: 10.81   5: 11.19   6: 11.91   7: 11.20   8:  8.38
   9: 11.46  10:  2.84  11:  9.56  12: 12.46  13: 11.27  14: 10.05  15:  4.21  16: 12.02
  17:  3.34  18:  3.63  19:  3.87  20:  2.98  21: 10.81  22:  6.35  23:  4.50  24:  3.01
  25:  1.57  26:  1.75  27:  9.72  28:  4.16  29: 11.35  30:  8.94  31:  9.34  32: 11.48
  33: 11.51  34:  1.81  35:  1.77  36:  1.83  37:  1.89  38:  1.87  39:  1.86
 IR intensities (km·mol⁻¹)
   1:  0.05   2:  0.25   3:  0.21   4:  0.55   5:  0.28   6:  0.14   7:  0.02   8: 13.54
   9: 10.03  10:148.99  11:  4.51  12:  1.12  13:  0.29  14:  0.36  15: 47.19  16: 24.19
  17:  0.02  18:  2.17  19:  0.13  20:  0.06  21:  4.18  22:  0.74  23: 20.07  24:143.27
  25:  0.30  26:  6.83  27:137.26  28: 47.17  29: 21.92  30: 19.40  31: 80.12  32: 14.05
  33: 73.23  34: 38.02  35:  2.73  36: 51.39  37: 53.79  38: 19.51  39: 19.70
 Raman intensities (Ä⁴*amu⁻¹)
   1:  0.00   2:  0.00   3:  0.00   4:  0.00   5:  0.00   6:  0.00   7:  0.00   8:  0.00
   9:  0.00  10:  0.00  11:  0.00  12:  0.00  13:  0.00  14:  0.00  15:  0.00  16:  0.00
  17:  0.00  18:  0.00  19:  0.00  20:  0.00  21:  0.00  22:  0.00  23:  0.00  24:  0.00
  25:  0.00  26:  0.00  27:  0.00  28:  0.00  29:  0.00  30:  0.00  31:  0.00  32:  0.00
  33:  0.00  34:  0.00  35:  0.00  36:  0.00  37:  0.00  38:  0.00  39:  0.00
 output can be read by thermo (or use thermo option).
 writing <g98.out> molden fake output.
 recommended (thermochemical) frequency scaling factor: 1.0
           -------------------------------------------------
          |             Thermodynamic Functions             |
           -------------------------------------------------

Molecule has the following symmetry elements: (sigma) 
It seems to be the Cs point group
cs  symmetry found (for desy threshold:  0.10E+00) used in thermo

          ...................................................
          :                      SETUP                      :
          :.................................................:
          :  # frequencies                          33      :
          :  # imaginary freq.                       0      :
          :  linear?                             false      :
          :  only rotor calc.                    false      :
          :  symmetry                               cs      :
          :  rotational number                       1      :
          :  scaling factor                  1.0000000      :
          :  rotor cutoff                   50.0000000 cm⁻¹ :
          :  imag. cutoff                  -20.0000000 cm⁻¹ :
          :.................................................:

    mode    ω/cm⁻¹     T·S(HO)/kcal·mol⁻¹    T·S(FR)/kcal·mol⁻¹   T·S(vib)
   ------------------------------------------------------------------------
       1    216.97    -0.59159 ( 99.72%)    -0.62162 (  0.28%)    -0.59168
   ------------------------------------------------------------------------

   temp. (K)  partition function   enthalpy   heat capacity  entropy
                                   cal/mol     cal/K/mol   cal/K/mol   J/K/mol
 298.15  VIB   3.86                 1764.711     16.448      8.604
         ROT  0.166E+06              888.752      2.981     26.864
         INT  0.640E+06             2653.463     19.429     35.468
         TR   0.883E+27             1481.254      4.968     39.519
         TOT                        4134.7170    24.3967    74.9875   313.7478

       T/K    H(0)-H(T)+PV         H(T)/Eh          T*S/Eh         G(T)/Eh
   ------------------------------------------------------------------------
    298.15    0.658909E-02    0.107921E+00    0.356290E-01    0.722918E-01
   ------------------------------------------------------------------------

         :::::::::::::::::::::::::::::::::::::::::::::::::::::
         ::                  THERMODYNAMIC                  ::
         :::::::::::::::::::::::::::::::::::::::::::::::::::::
         :: total free energy         -19.881854567719 Eh   ::
         ::.................................................::
         :: total energy              -19.954146323170 Eh   ::
         :: zero point energy           0.101331662396 Eh   ::
         :: G(RRHO) w/o ZPVE           -0.029039906946 Eh   ::
         :: G(RRHO) contrib.            0.072291755450 Eh   ::
         :::::::::::::::::::::::::::::::::::::::::::::::::::::

           -------------------------------------------------
          | TOTAL ENERGY              -19.954146323170 Eh   |
          | TOTAL ENTHALPY            -19.846225569765 Eh   |
          | TOTAL FREE ENERGY         -19.881854567719 Eh   |
          | GRADIENT NORM               0.000060324444 Eh/α |
          | HOMO-LUMO GAP               4.352145328717 eV   |
           -------------------------------------------------

------------------------------------------------------------------------
 * finished run on 2026/09/17 at 00:40:26.241     
------------------------------------------------------------------------
 total:
 * wall-time:     0 d,  0 h,  0 min,  0.603 sec
 *  cpu-time:     0 d,  0 h,  0 min,  1.453 sec
 * ratio c/w:     2.410 speedup
 SCF:
 * wall-time:     0 d,  0 h,  0 min,  0.008 sec
 *  cpu-time:     0 d,  0 h,  0 min,  0.000 sec
 * ratio c/w:     0.000 speedup
 analytical hessian:
 * wall-time:     0 d,  0 h,  0 min,  0.452 sec
 *  cpu-time:     0 d,  0 h,  0 min,  1.000 sec
 * ratio c/w:     2.212 speedup

