15
Coordinates from ORCA-job optfreq E -457.807846374207
  C           0.22181041271468     -1.32307807094962      0.60515340179046
  C          -0.67156396502544     -0.44374371158026      0.05213942602493
  O          -0.00806771497860      0.60662398114705     -0.49993714974794
  C           1.33600739685810      0.39296901011348     -0.29087681872663
  C           1.51224757656093     -0.78875388247990      0.38199583688382
  C           2.25087648264214      1.39380269488448     -0.79678802601710
  O           3.46051566860491      1.31500219210532     -0.68067154025512
  C          -2.15509927887455     -0.39441170389859     -0.01410420642296
  O          -2.71741861212048      0.55883876321651      0.89270275415004
  H          -0.03080946668553     -2.24149891302637      1.11531692458101
  H           2.46808644443288     -1.20051496558805      0.67141758779603
  H           1.76144495500823      2.25300659284301     -1.30692214464008
  H          -2.55290143633581     -1.36901583987275      0.28123643987826
  H          -2.47474013792133     -0.19250156590888     -1.04850241746547
  H          -2.40038732488010      1.43327441899453      0.63783893217071
