15
Coordinates from ORCA-job optfreq E -457.805906383080
  C       0.223774     -1.325296      0.581511
  C      -0.664790     -0.417988      0.062084
  O      -0.010190      0.629817     -0.461995
  C       1.318461      0.409845     -0.288792
  C       1.504775     -0.796145      0.353934
  C       2.261526      1.396423     -0.766782
  O       3.461645      1.311012     -0.677302
  C      -2.161749     -0.409055      0.015492
  O      -2.720059      0.596640      0.826481
  H      -0.020180     -2.249720      1.062743
  H       2.449893     -1.222567      0.620120
  H       1.771154      2.268667     -1.240582
  H      -2.541619     -1.356168      0.401948
  H      -2.490330     -0.289132     -1.028669
  H      -2.382310      1.453665      0.539808
15
Coordinates from ORCA-job optfreq E -457.807408634677
  C       0.223481     -1.331976      0.582632
  C      -0.670189     -0.429045      0.062875
  O      -0.011432      0.622126     -0.469343
  C       1.326962      0.403874     -0.287590
  C       1.511320     -0.799679      0.353177
  C       2.258545      1.401995     -0.769002
  O       3.465850      1.312685     -0.673700
  C      -2.161246     -0.402746      0.012970
  O      -2.727577      0.609030      0.836461
  H      -0.023791     -2.261981      1.073126
  H       2.466609     -1.225638      0.622187
  H       1.766006      2.280067     -1.248592
  H      -2.537964     -1.355670      0.392577
  H      -2.489385     -0.290027     -1.034487
  H      -2.397188      1.466983      0.546707
15
Coordinates from ORCA-job optfreq E -457.807753939365
  C       0.223486     -1.333897      0.588201
  C      -0.672809     -0.436373      0.066800
  O      -0.012892      0.620636     -0.469212
  C       1.332086      0.397709     -0.286952
  C       1.514005     -0.799636      0.358336
  C       2.251678      1.401631     -0.778271
  O       3.461926      1.311672     -0.675231
  C      -2.157804     -0.398553      0.007043
  O      -2.727787      0.607569      0.846507
  H      -0.025230     -2.263302      1.082445
  H       2.472009     -1.222625      0.627526
  H       1.760736      2.281299     -1.255818
  H      -2.538145     -1.356981      0.370484
  H      -2.483003     -0.275419     -1.039299
  H      -2.398256      1.466269      0.557439
15
Coordinates from ORCA-job optfreq E -457.807723853551
  C       0.223876     -1.333743      0.592025
  C      -0.672989     -0.439866      0.068667
  O      -0.012880      0.619659     -0.469935
  C       1.334050      0.398439     -0.279176
  C       1.514541     -0.798377      0.363797
  C       2.247076      1.408668     -0.768997
  O       3.458761      1.306652     -0.688363
  C      -2.155867     -0.397168      0.001964
  O      -2.725878      0.600517      0.854046
  H      -0.025414     -2.261980      1.086928
  H       2.472645     -1.218864      0.634209
  H       1.758360      2.273287     -1.271427
  H      -2.542393     -1.358953      0.350467
  H      -2.478483     -0.258487     -1.042436
  H      -2.395404      1.460216      0.568230
15
Coordinates from ORCA-job optfreq E -457.807815421607
  C       0.224148     -1.333240      0.594234
  C      -0.672637     -0.442080      0.067580
  O      -0.012655      0.615005     -0.477218
  C       1.334288      0.394317     -0.285022
  C       1.514305     -0.799438      0.363241
  C       2.245919      1.402795     -0.780941
  O       3.456613      1.314709     -0.677870
  C      -2.155752     -0.397280      0.001476
  O      -2.721620      0.599272      0.856858
  H      -0.025181     -2.258501      1.093323
  H       2.472050     -1.218583      0.634751
  H       1.756519      2.275936     -1.265479
  H      -2.546478     -1.358445      0.347068
  H      -2.479256     -0.252734     -1.041584
  H      -2.390261      1.458265      0.569581
15
Coordinates from ORCA-job optfreq E -457.807825225203
  C       0.224055     -1.332903      0.593839
  C      -0.672253     -0.442020      0.065413
  O      -0.012218      0.615590     -0.476375
  C       1.333978      0.394507     -0.285866
  C       1.513805     -0.797559      0.366777
  C       2.247066      1.401552     -0.782543
  O       3.457477      1.314974     -0.679828
  C      -2.156187     -0.397559      0.000168
  O      -2.720756      0.595324      0.859896
  H      -0.025426     -2.258335      1.092704
  H       2.471280     -1.215741      0.641131
  H       1.756967      2.272904     -1.270614
  H      -2.548236     -1.359578      0.341371
  H      -2.479237     -0.246990     -1.042365
  H      -2.390312      1.455832      0.576292
15
Coordinates from ORCA-job optfreq E -457.807832727063
  C       0.223974     -1.331721      0.596094
  C      -0.671935     -0.443267      0.062944
  O      -0.011617      0.613247     -0.480316
  C       1.334076      0.394080     -0.286258
  C       1.513586     -0.796808      0.369048
  C       2.247078      1.400829     -0.783946
  O       3.457375      1.316564     -0.680396
  C      -2.156090     -0.397424     -0.002223
  O      -2.718648      0.590211      0.864969
  H      -0.025880     -2.255773      1.097292
  H       2.470899     -1.213838      0.645683
  H       1.756297      2.269721     -1.275949
  H      -2.550907     -1.360760      0.331632
  H      -2.478437     -0.237566     -1.043570
  H      -2.389770      1.452503      0.584995
15
Coordinates from ORCA-job optfreq E -457.807841773682
  C       0.223485     -1.328852      0.600891
  C      -0.671446     -0.445895      0.057112
  O      -0.009948      0.607393     -0.491451
  C       1.334878      0.392614     -0.287930
  C       1.513020     -0.793218      0.377156
  C       2.247260      1.397786     -0.790046
  O       3.457344      1.319209     -0.681369
  C      -2.155408     -0.396059     -0.008767
  O      -2.714591      0.575231      0.880030
  H      -0.027556     -2.249884      1.106973
  H       2.469812     -1.206459      0.661079
  H       1.755542      2.260233     -1.292434
  H      -2.556020     -1.363984      0.303769
  H      -2.475635     -0.211139     -1.046388
  H      -2.390738      1.443024      0.611373
15
Coordinates from ORCA-job optfreq E -457.807844221813
  C       0.222946     -1.326634      0.603353
  C      -0.671422     -0.445814      0.054823
  O      -0.009198      0.606461     -0.494950
  C       1.335338      0.392425     -0.289012
  C       1.512822     -0.791782      0.379191
  C       2.248243      1.396177     -0.792862
  O       3.458224      1.318534     -0.681338
  C      -2.155150     -0.395392     -0.011369
  O      -2.714770      0.568597      0.885582
  H      -0.028705     -2.246371      1.111575
  H       2.469336     -1.204275      0.665255
  H       1.756769      2.257061     -1.298270
  H      -2.555848     -1.365797      0.293352
  H      -2.474726     -0.202293     -1.047593
  H      -2.393858      1.439102      0.622261
15
Coordinates from ORCA-job optfreq E -457.807845988004
  C       0.222145     -1.324057      0.604975
  C      -0.671492     -0.444652      0.052509
  O      -0.008263      0.605937     -0.499391
  C       1.335878      0.392631     -0.290465
  C       1.512437     -0.789454      0.381747
  C       2.250048      1.394226     -0.796105
  O       3.459804      1.316489     -0.680792
  C      -2.155007     -0.394499     -0.013749
  O      -2.716221      0.560845      0.891718
  H      -0.030243     -2.242723      1.114833
  H       2.468469     -1.201125      0.670693
  H       1.759680      2.253436     -1.305446
  H      -2.554166     -1.368111      0.282902
  H      -2.474351     -0.193508     -1.048426
  H      -2.398714      1.434563      0.634995
15
Coordinates from ORCA-job optfreq E -457.807846374207
  C       0.221810     -1.323078      0.605153
  C      -0.671564     -0.443744      0.052139
  O      -0.008068      0.606624     -0.499937
  C       1.336007      0.392969     -0.290877
  C       1.512248     -0.788754      0.381996
  C       2.250876      1.393803     -0.796788
  O       3.460516      1.315002     -0.680672
  C      -2.155099     -0.394412     -0.014104
  O      -2.717419      0.558839      0.892703
  H      -0.030809     -2.241499      1.115317
  H       2.468086     -1.200515      0.671418
  H       1.761445      2.253007     -1.306922
  H      -2.552901     -1.369016      0.281236
  H      -2.474740     -0.192502     -1.048502
  H      -2.400387      1.433274      0.637839
