 Entering Gaussian System
 *********************************************
 Gaussian 98:
 frequency output generated by the xtb code
 *********************************************
                         Standard orientation:
 --------------------------------------------------------------------
  Center     Atomic     Atomic              Coordinates (Angstroms)
  Number     Number      Type              X           Y           Z
 --------------------------------------------------------------------
    1          6             0       -0.695722   -1.118499   -0.646509
    2          6             0        0.550997   -1.344609    0.203651
    3          6             0        1.453555   -0.114954    0.164339
    4          6             0        0.695722    1.118499    0.646509
    5          6             0       -0.550997    1.344609   -0.203651
    6          6             0       -1.453555    0.114954   -0.164339
    7          1             0       -0.401315   -0.977070   -1.689281
    8          1             0       -1.343826   -1.996420   -0.598199
    9          1             0        1.096162   -2.218636   -0.159653
   10          1             0        0.253327   -1.541569    1.236439
   11          1             0        1.796418    0.049100   -0.860152
   12          1             0        2.334179   -0.279078    0.789385
   13          1             0        1.343826    1.996420    0.598199
   14          1             0        0.401315    0.977070    1.689281
   15          1             0       -0.253327    1.541569   -1.236439
   16          1             0       -1.096162    2.218636    0.159653
   17          1             0       -2.334179    0.279078   -0.789385
   18          1             0       -1.796418   -0.049100    0.860152
 --------------------------------------------------------------------
     1 basis functions        1 primitive gaussians
     1 alpha electrons        1 beta electrons
 
 Harmonic frequencies (cm**-1), IR intensities (km*mol⁻¹),
 Raman scattering activities (A**4/amu), Raman depolarization ratios,
 reduced masses (AMU), force constants (mDyne/A) and normal coordinates:
                      1                      2                      3
                        a                      a                      a 
 Frequencies --   231.9075               231.9254               375.8930
 Red. masses --     6.2458                 6.2458                 5.4498
 Frc consts  --     0.0000                 0.0000                 0.0000
 IR Inten    --     0.1115                 0.1085                 0.0000
 Raman Activ --     0.0000                 0.0000                 0.0000
 Depolar     --     0.0000                 0.0000                 0.0000
 Atom AN      X      Y      Z        X      Y      Z        X      Y      Z
   1   6     0.20   0.08  -0.24    -0.00  -0.15   0.19     0.14   0.16  -0.15
   2   6    -0.19   0.03   0.28     0.04   0.07   0.19    -0.13   0.11   0.20
   3   6    -0.01  -0.13  -0.05    -0.01   0.08  -0.36    -0.09   0.05  -0.24
   4   6     0.20   0.08  -0.24    -0.00  -0.15   0.19    -0.14  -0.16   0.15
   5   6    -0.19   0.03   0.28     0.04   0.07   0.19     0.13  -0.11  -0.20
   6   6    -0.01  -0.13  -0.05    -0.01   0.08  -0.36     0.09  -0.05   0.24
   7   1     0.19   0.13  -0.02    -0.00  -0.18   0.03     0.13   0.18   0.00
   8   1     0.06   0.01  -0.23    -0.02  -0.02   0.16     0.06   0.03  -0.21
   9   1    -0.07  -0.07   0.25    -0.01  -0.02   0.13    -0.06  -0.04   0.21
  10   1    -0.17   0.16   0.08     0.05   0.14   0.08    -0.11   0.19   0.06
  11   1    -0.02  -0.13  -0.04    -0.20   0.05  -0.17    -0.19   0.03  -0.12
  12   1     0.01  -0.02  -0.02     0.11   0.04  -0.27     0.07   0.03  -0.20
  13   1     0.06   0.01  -0.23    -0.02  -0.02   0.16    -0.06  -0.03   0.21
  14   1     0.19   0.13  -0.02    -0.00  -0.18   0.03    -0.13  -0.18  -0.00
  15   1    -0.17   0.16   0.08     0.05   0.14   0.08     0.11  -0.19  -0.06
  16   1    -0.07  -0.07   0.25    -0.01  -0.02   0.13     0.06   0.04  -0.21
  17   1     0.01  -0.02  -0.02     0.11   0.04  -0.27    -0.07  -0.03   0.20
  18   1    -0.02  -0.13  -0.04    -0.20   0.05  -0.17     0.19  -0.03   0.12
                      4                      5                      6
                        a                      a                      a 
 Frequencies --   418.9557               418.9682               539.9788
 Red. masses --     9.1539                 9.1538                 4.3907
 Frc consts  --     0.0000                 0.0000                 0.0000
 IR Inten    --     0.0000                 0.0000                 3.2760
 Raman Activ --     0.0000                 0.0000                 0.0000
 Depolar     --     0.0000                 0.0000                 0.0000
 Atom AN      X      Y      Z        X      Y      Z        X      Y      Z
   1   6    -0.26  -0.14  -0.18     0.04   0.33   0.15     0.10   0.17   0.12
   2   6    -0.19   0.39  -0.11     0.14   0.17   0.04     0.08  -0.21   0.05
   3   6     0.15   0.18   0.04     0.43  -0.09   0.00    -0.23   0.01  -0.01
   4   6     0.26   0.14   0.18    -0.04  -0.33  -0.15     0.10   0.17   0.12
   5   6     0.19  -0.39   0.11    -0.14  -0.17  -0.04     0.08  -0.21   0.05
   6   6    -0.15  -0.18  -0.04    -0.43   0.09  -0.00    -0.23   0.01  -0.01
   7   1    -0.14  -0.08  -0.07     0.04   0.18   0.06     0.14   0.22   0.08
   8   1    -0.01  -0.08   0.05     0.09   0.03  -0.04     0.05   0.02  -0.19
   9   1    -0.05   0.07   0.09    -0.07  -0.01  -0.00     0.05   0.04  -0.19
  10   1    -0.11   0.21  -0.03     0.06   0.08   0.03     0.12  -0.25   0.00
  11   1     0.08   0.09   0.03     0.22  -0.05   0.03    -0.26   0.03  -0.07
  12   1     0.01  -0.07   0.02     0.05  -0.00   0.10     0.07   0.03  -0.19
  13   1     0.01   0.08  -0.05    -0.09  -0.03   0.04     0.05   0.02  -0.19
  14   1     0.14   0.08   0.07    -0.04  -0.18  -0.06     0.14   0.22   0.08
  15   1     0.11  -0.21   0.03    -0.06  -0.08  -0.03     0.12  -0.25   0.00
  16   1     0.05  -0.07  -0.09     0.07   0.01   0.00     0.05   0.04  -0.19
  17   1    -0.01   0.07  -0.02    -0.05   0.00  -0.10     0.07   0.03  -0.19
  18   1    -0.08  -0.09  -0.03    -0.22   0.05  -0.03    -0.26   0.03  -0.07
                      7                      8                      9
                        a                      a                      a 
 Frequencies --   823.1476               823.2148               869.3186
 Red. masses --     4.4191                 4.4184                 9.4398
 Frc consts  --     0.0000                 0.0000                 0.0000
 IR Inten    --     0.0000                 0.0000                 0.0000
 Raman Activ --     0.0000                 0.0000                 0.0000
 Depolar     --     0.0000                 0.0000                 0.0000
 Atom AN      X      Y      Z        X      Y      Z        X      Y      Z
   1   6    -0.07   0.14  -0.06     0.19   0.15  -0.12    -0.16  -0.26  -0.18
   2   6    -0.00   0.14   0.17     0.19  -0.06  -0.11     0.12  -0.33   0.07
   3   6     0.13  -0.02   0.25     0.02  -0.16   0.03     0.36  -0.02   0.01
   4   6     0.07  -0.14   0.06    -0.19  -0.15   0.12     0.16   0.26   0.18
   5   6     0.00  -0.14  -0.17    -0.19   0.06   0.11    -0.12   0.33  -0.07
   6   6    -0.13   0.02  -0.25    -0.02   0.16  -0.03    -0.36   0.02  -0.01
   7   1    -0.00  -0.11  -0.03    -0.17  -0.23  -0.13     0.02   0.02  -0.02
   8   1     0.02   0.02   0.10     0.00   0.09   0.32    -0.03  -0.09  -0.17
   9   1    -0.01   0.13  -0.20    -0.02  -0.15   0.20     0.02  -0.14   0.13
  10   1     0.05  -0.22   0.01    -0.13   0.20  -0.04    -0.01   0.01   0.03
  11   1    -0.31   0.01  -0.05    -0.07   0.06  -0.00    -0.01   0.01  -0.03
  12   1     0.25   0.02  -0.23     0.06   0.03  -0.05     0.17   0.01  -0.09
  13   1    -0.02  -0.02  -0.10    -0.00  -0.09  -0.32     0.03   0.09   0.17
  14   1     0.00   0.11   0.03     0.17   0.23   0.13    -0.02  -0.02   0.02
  15   1    -0.05   0.22  -0.01     0.13  -0.20   0.04     0.01  -0.01  -0.03
  16   1     0.01  -0.13   0.20     0.02   0.15  -0.20    -0.02   0.14  -0.13
  17   1    -0.25  -0.02   0.23    -0.06  -0.03   0.05    -0.17  -0.01   0.09
  18   1     0.31  -0.01   0.05     0.07  -0.06   0.00     0.01  -0.01   0.03
                     10                     11                     12
                        a                      a                      a 
 Frequencies --   931.8510               931.8964               938.0161
 Red. masses --     4.3938                 4.3968                 6.8885
 Frc consts  --     0.0000                 0.0000                 0.0000
 IR Inten    --     6.1341                 5.9239                 0.0364
 Raman Activ --     0.0000                 0.0000                 0.0000
 Depolar     --     0.0000                 0.0000                 0.0000
 Atom AN      X      Y      Z        X      Y      Z        X      Y      Z
   1   6     0.08   0.23  -0.06     0.19   0.07  -0.02    -0.18   0.04  -0.19
   2   6    -0.10  -0.08  -0.06    -0.16   0.20   0.13     0.03  -0.25   0.25
   3   6     0.19  -0.10   0.17    -0.09  -0.10  -0.10     0.16   0.21  -0.06
   4   6     0.08   0.23  -0.06     0.19   0.07  -0.02    -0.18   0.04  -0.19
   5   6    -0.10  -0.08  -0.06    -0.16   0.20   0.13     0.03  -0.25   0.25
   6   6     0.19  -0.10   0.17    -0.09  -0.10  -0.10     0.16   0.21  -0.06
   7   1    -0.22  -0.06  -0.10     0.10  -0.24  -0.02     0.05  -0.13  -0.04
   8   1    -0.03   0.11   0.23     0.06   0.02   0.18    -0.23   0.15  -0.03
   9   1    -0.07  -0.06  -0.00    -0.01   0.19  -0.24     0.03  -0.01  -0.03
  10   1    -0.24  -0.08  -0.09     0.07  -0.23   0.01     0.05  -0.17   0.06
  11   1    -0.22  -0.08  -0.06     0.08  -0.25  -0.03     0.08  -0.11  -0.03
  12   1     0.21  -0.01  -0.19    -0.10  -0.09   0.06     0.02   0.27   0.07
  13   1    -0.03   0.11   0.23     0.06   0.02   0.18    -0.23   0.15  -0.03
  14   1    -0.22  -0.06  -0.10     0.10  -0.24  -0.02     0.05  -0.13  -0.04
  15   1    -0.24  -0.08  -0.09     0.07  -0.23   0.01     0.05  -0.17   0.06
  16   1    -0.07  -0.06  -0.00    -0.01   0.19  -0.24     0.03  -0.01  -0.03
  17   1     0.21  -0.01  -0.19    -0.10  -0.09   0.06     0.02   0.27   0.07
  18   1    -0.22  -0.08  -0.06     0.08  -0.25  -0.03     0.08  -0.11  -0.03
                     13                     14                     15
                        a                      a                      a 
 Frequencies --   938.0416              1013.0562              1063.8174
 Red. masses --     6.8900                 7.8672                 1.0204
 Frc consts  --     0.0000                 0.0000                 0.0000
 IR Inten    --     0.0448                 4.1183                 0.0000
 Raman Activ --     0.0000                 0.0000                 0.0000
 Depolar     --     0.0000                 0.0000                 0.0000
 Atom AN      X      Y      Z        X      Y      Z        X      Y      Z
   1   6    -0.06   0.19   0.26    -0.18  -0.26  -0.05    -0.01   0.01  -0.00
   2   6    -0.20  -0.10  -0.07    -0.15   0.28   0.05    -0.01  -0.01  -0.00
   3   6     0.25  -0.10  -0.19     0.29  -0.04   0.13    -0.00  -0.01  -0.00
   4   6    -0.06   0.19   0.26    -0.18  -0.26  -0.05     0.01  -0.01   0.00
   5   6    -0.20  -0.10  -0.07    -0.15   0.28   0.05     0.01   0.01   0.00
   6   6     0.25  -0.10  -0.19     0.29  -0.04   0.13     0.00   0.01   0.00
   7   1     0.11   0.07   0.11     0.06   0.09   0.04     0.29  -0.21   0.05
   8   1    -0.11   0.12  -0.05    -0.03  -0.09  -0.20    -0.15   0.11  -0.03
   9   1    -0.28  -0.13  -0.10    -0.01   0.16  -0.16    -0.16  -0.08  -0.06
  10   1     0.11   0.05   0.04     0.05  -0.11   0.00     0.31   0.14   0.12
  11   1     0.17   0.05  -0.00    -0.11   0.01  -0.03     0.02   0.36   0.06
  12   1     0.00  -0.16   0.01     0.19   0.01  -0.12    -0.01  -0.19  -0.03
  13   1    -0.11   0.12  -0.05    -0.03  -0.09  -0.20     0.15  -0.11   0.03
  14   1     0.11   0.07   0.11     0.06   0.09   0.04    -0.29   0.21  -0.05
  15   1     0.11   0.05   0.04     0.05  -0.11   0.00    -0.31  -0.14  -0.12
  16   1    -0.28  -0.13  -0.10    -0.01   0.16  -0.16     0.16   0.08   0.06
  17   1     0.00  -0.16   0.01     0.19   0.01  -0.12     0.01   0.19   0.03
  18   1     0.17   0.05  -0.00    -0.11   0.01  -0.03    -0.02  -0.36  -0.06
                     16                     17                     18
                        a                      a                      a 
 Frequencies --  1096.4909              1096.5116              1125.2554
 Red. masses --     5.9265                 5.9262                 5.2690
 Frc consts  --     0.0000                 0.0000                 0.0000
 IR Inten    --     0.0000                 0.0000                 0.0006
 Raman Activ --     0.0000                 0.0000                 0.0000
 Depolar     --     0.0000                 0.0000                 0.0000
 Atom AN      X      Y      Z        X      Y      Z        X      Y      Z
   1   6     0.07  -0.17  -0.09     0.28  -0.15   0.09     0.20  -0.15   0.04
   2   6     0.15   0.19   0.01    -0.26  -0.03  -0.14    -0.22  -0.10  -0.08
   3   6    -0.04  -0.34  -0.06     0.15  -0.04  -0.05     0.01   0.25   0.04
   4   6    -0.07   0.17   0.09    -0.28   0.15  -0.09     0.20  -0.15   0.04
   5   6    -0.15  -0.19  -0.01     0.26   0.03   0.14    -0.22  -0.10  -0.08
   6   6     0.04   0.34   0.06    -0.15   0.04   0.05     0.01   0.25   0.04
   7   1     0.07  -0.03  -0.01     0.12  -0.10   0.03     0.15  -0.11   0.03
   8   1     0.12  -0.11  -0.03     0.29  -0.20   0.08    -0.21   0.15  -0.04
   9   1     0.20   0.13   0.04    -0.27  -0.10  -0.13     0.22   0.10   0.08
  10   1     0.10   0.03   0.02    -0.11  -0.06  -0.06    -0.16  -0.07  -0.06
  11   1    -0.01  -0.17  -0.03    -0.01  -0.02  -0.03     0.01   0.18   0.03
  12   1    -0.03  -0.38  -0.06     0.05  -0.04  -0.04    -0.02  -0.26  -0.05
  13   1    -0.12   0.11   0.03    -0.29   0.20  -0.08    -0.21   0.15  -0.04
  14   1    -0.07   0.03   0.01    -0.12   0.10  -0.03     0.15  -0.11   0.03
  15   1    -0.10  -0.03  -0.02     0.11   0.06   0.06    -0.16  -0.07  -0.06
  16   1    -0.20  -0.13  -0.04     0.27   0.10   0.13     0.22   0.10   0.08
  17   1     0.03   0.38   0.06    -0.05   0.04   0.04    -0.02  -0.26  -0.05
  18   1     0.01   0.17   0.03     0.01   0.02   0.03     0.01   0.18   0.03
                     19                     20                     21
                        a                      a                      a 
 Frequencies --  1160.6302              1178.6783              1249.1321
 Red. masses --     3.8874                 7.7351                 3.2383
 Frc consts  --     0.0000                 0.0000                 0.0000
 IR Inten    --     0.0005                 0.0000                 0.0000
 Raman Activ --     0.0000                 0.0000                 0.0000
 Depolar     --     0.0000                 0.0000                 0.0000
 Atom AN      X      Y      Z        X      Y      Z        X      Y      Z
   1   6    -0.17   0.12  -0.03    -0.09  -0.05   0.30    -0.13  -0.01  -0.13
   2   6     0.18   0.08   0.07     0.09   0.05  -0.30     0.14   0.02   0.08
   3   6    -0.01  -0.21  -0.04    -0.09  -0.05   0.30    -0.18  -0.04   0.07
   4   6    -0.17   0.12  -0.03     0.09   0.05  -0.30     0.13   0.01   0.13
   5   6     0.18   0.08   0.07    -0.09  -0.05   0.30    -0.14  -0.02  -0.08
   6   6    -0.01  -0.21  -0.04     0.09   0.05  -0.30     0.18   0.04  -0.07
   7   1    -0.13   0.09  -0.02     0.09   0.15   0.13    -0.19   0.12  -0.06
   8   1    -0.25   0.18  -0.05    -0.00  -0.04  -0.13     0.22  -0.18   0.00
   9   1     0.27   0.13   0.10    -0.01  -0.08   0.11    -0.32  -0.16  -0.11
  10   1     0.14   0.06   0.05    -0.07   0.19  -0.06     0.27   0.12   0.11
  11   1    -0.01  -0.16  -0.03    -0.22   0.01   0.01    -0.04  -0.08   0.01
  12   1    -0.02  -0.31  -0.06     0.10   0.01  -0.09    -0.04   0.09   0.05
  13   1    -0.25   0.18  -0.05     0.00   0.04   0.13    -0.22   0.18  -0.00
  14   1    -0.13   0.09  -0.02    -0.09  -0.15  -0.13     0.19  -0.12   0.06
  15   1     0.14   0.06   0.05     0.07  -0.19   0.06    -0.27  -0.12  -0.11
  16   1     0.27   0.13   0.10     0.01   0.08  -0.11     0.32   0.16   0.11
  17   1    -0.02  -0.31  -0.06    -0.10  -0.01   0.09     0.04  -0.09  -0.05
  18   1    -0.01  -0.16  -0.03     0.22  -0.01  -0.01     0.04   0.08  -0.01
                     22                     23                     24
                        a                      a                      a 
 Frequencies --  1249.1740              1251.5090              1251.5432
 Red. masses --     3.2383                 3.8891                 3.8897
 Frc consts  --     0.0000                 0.0000                 0.0000
 IR Inten    --     0.0000                 1.0778                 1.1192
 Raman Activ --     0.0000                 0.0000                 0.0000
 Depolar     --     0.0000                 0.0000                 0.0000
 Atom AN      X      Y      Z        X      Y      Z        X      Y      Z
   1   6    -0.06   0.14   0.10    -0.02   0.00   0.06     0.06   0.02  -0.28
   2   6    -0.01  -0.17   0.10    -0.06  -0.06   0.20    -0.04  -0.05   0.19
   3   6    -0.04   0.16   0.05     0.11   0.04  -0.25    -0.04   0.00   0.09
   4   6     0.06  -0.14  -0.10    -0.02   0.00   0.06     0.06   0.02  -0.28
   5   6     0.01   0.17  -0.10    -0.06  -0.06   0.20    -0.04  -0.05   0.19
   6   6     0.04  -0.16  -0.05     0.11   0.04  -0.25    -0.04   0.00   0.09
   7   1    -0.18   0.15  -0.00    -0.30   0.25  -0.04    -0.13  -0.06  -0.12
   8   1     0.22  -0.14   0.08     0.17  -0.13   0.02     0.04  -0.01   0.07
   9   1     0.10  -0.00   0.07     0.13   0.09   0.00    -0.14  -0.04  -0.09
  10   1    -0.07  -0.07   0.00    -0.20  -0.22  -0.04     0.29   0.02   0.14
  11   1     0.01   0.31   0.06     0.16   0.12  -0.00    -0.03   0.38   0.08
  12   1    -0.03  -0.37  -0.06    -0.05  -0.07   0.03     0.00  -0.21  -0.05
  13   1    -0.22   0.14  -0.08     0.17  -0.13   0.02     0.04  -0.01   0.07
  14   1     0.18  -0.15   0.00    -0.30   0.25  -0.04    -0.13  -0.06  -0.12
  15   1     0.07   0.07  -0.00    -0.20  -0.22  -0.04     0.29   0.02   0.14
  16   1    -0.10   0.00  -0.07     0.13   0.09   0.00    -0.14  -0.04  -0.09
  17   1     0.03   0.37   0.06    -0.05  -0.07   0.03     0.00  -0.21  -0.05
  18   1    -0.01  -0.31  -0.06     0.16   0.12  -0.00    -0.03   0.38   0.08
                     25                     26                     27
                        a                      a                      a 
 Frequencies --  1331.9180              1350.4406              1350.4606
 Red. masses --     3.7472                 4.7342                 4.7274
 Frc consts  --     0.0000                 0.0000                 0.0000
 IR Inten    --     0.0000                 3.4727                 3.5459
 Raman Activ --     0.0000                 0.0000                 0.0000
 Depolar     --     0.0000                 0.0000                 0.0000
 Atom AN      X      Y      Z        X      Y      Z        X      Y      Z
   1   6    -0.16   0.12  -0.03     0.19  -0.06   0.05    -0.11   0.19  -0.01
   2   6    -0.17  -0.08  -0.07    -0.04   0.10   0.01    -0.26  -0.14  -0.10
   3   6    -0.01  -0.20  -0.04    -0.06  -0.33  -0.07     0.09  -0.13   0.01
   4   6     0.16  -0.12   0.03     0.19  -0.06   0.05    -0.11   0.19  -0.01
   5   6     0.17   0.08   0.07    -0.04   0.10   0.01    -0.26  -0.14  -0.10
   6   6     0.01   0.20   0.04    -0.06  -0.33  -0.07     0.09  -0.13   0.01
   7   1     0.13  -0.09   0.02    -0.08   0.07  -0.01     0.12  -0.07   0.03
   8   1     0.25  -0.18   0.05    -0.24   0.20   0.01     0.21  -0.12   0.10
   9   1     0.27   0.13   0.10     0.05   0.08  -0.05     0.34   0.15   0.14
  10   1     0.13   0.06   0.05    -0.04   0.00  -0.01     0.19   0.09   0.07
  11   1     0.01   0.15   0.03     0.01   0.27   0.05     0.02   0.08   0.02
  12   1     0.02   0.31   0.06    -0.01   0.35   0.08     0.08   0.15  -0.02
  13   1    -0.25   0.18  -0.05    -0.24   0.20   0.01     0.21  -0.12   0.10
  14   1    -0.13   0.09  -0.02    -0.08   0.07  -0.01     0.12  -0.07   0.03
  15   1    -0.13  -0.06  -0.05    -0.04   0.00  -0.01     0.19   0.09   0.07
  16   1    -0.27  -0.13  -0.10     0.05   0.08  -0.05     0.34   0.15   0.14
  17   1    -0.02  -0.31  -0.06    -0.01   0.35   0.08     0.08   0.15  -0.02
  18   1    -0.01  -0.15  -0.03     0.01   0.27   0.05     0.02   0.08   0.02
                     28                     29                     30
                        a                      a                      a 
 Frequencies --  1350.4897              1360.4498              1360.4897
 Red. masses --     4.8639                 5.3659                 5.3660
 Frc consts  --     0.0000                 0.0000                 0.0000
 IR Inten    --     0.1587                 0.0000                 0.0000
 Raman Activ --     0.0000                 0.0000                 0.0000
 Depolar     --     0.0000                 0.0000                 0.0000
 Atom AN      X      Y      Z        X      Y      Z        X      Y      Z
   1   6    -0.24   0.16  -0.05    -0.27   0.10  -0.03     0.08  -0.20   0.04
   2   6     0.22   0.08   0.08     0.29   0.07   0.07     0.06   0.16   0.10
   3   6    -0.00  -0.17  -0.03    -0.11   0.00  -0.10    -0.01  -0.33  -0.05
   4   6    -0.24   0.16  -0.05     0.27  -0.10   0.03    -0.08   0.20  -0.04
   5   6     0.22   0.08   0.08    -0.29  -0.07  -0.07    -0.06  -0.16  -0.10
   6   6    -0.00  -0.17  -0.03     0.11  -0.00   0.10     0.01   0.33   0.05
   7   1     0.29  -0.21   0.05     0.29  -0.17   0.07    -0.16   0.17  -0.01
   8   1     0.05  -0.04  -0.00     0.10  -0.10  -0.01    -0.09   0.03  -0.06
   9   1    -0.01  -0.02   0.01    -0.12  -0.08  -0.03    -0.07   0.02  -0.06
  10   1    -0.28  -0.14  -0.11    -0.32  -0.12  -0.12    -0.14  -0.12  -0.05
  11   1     0.02   0.27   0.05     0.06   0.02   0.01     0.02   0.40   0.07
  12   1     0.00  -0.08  -0.02    -0.06   0.01   0.03     0.01   0.16   0.03
  13   1     0.05  -0.04  -0.00    -0.10   0.10   0.01     0.09  -0.03   0.06
  14   1     0.29  -0.21   0.05    -0.29   0.17  -0.07     0.16  -0.17   0.01
  15   1    -0.28  -0.14  -0.11     0.32   0.12   0.12     0.14   0.12   0.05
  16   1    -0.01  -0.02   0.01     0.12   0.08   0.03     0.07  -0.02   0.06
  17   1     0.00  -0.08  -0.02     0.06  -0.01  -0.03    -0.01  -0.16  -0.03
  18   1     0.02   0.27   0.05    -0.06  -0.02  -0.01    -0.02  -0.40  -0.07
                     31                     32                     33
                        a                      a                      a 
 Frequencies --  1485.2387              1485.2920              1493.8526
 Red. masses --     1.8827                 1.8826                 2.0597
 Frc consts  --     0.0000                 0.0000                 0.0000
 IR Inten    --     0.0000                 0.0000                 0.1948
 Raman Activ --     0.0000                 0.0000                 0.0000
 Depolar     --     0.0000                 0.0000                 0.0000
 Atom AN      X      Y      Z        X      Y      Z        X      Y      Z
   1   6     0.02  -0.02  -0.01    -0.04  -0.08  -0.13     0.01  -0.01   0.00
   2   6     0.01  -0.11   0.07    -0.03   0.07  -0.06    -0.02   0.13  -0.07
   3   6    -0.14  -0.01   0.05    -0.06   0.02   0.03    -0.15  -0.01   0.04
   4   6    -0.02   0.02   0.01     0.04   0.08   0.13     0.01  -0.01   0.00
   5   6    -0.01   0.11  -0.07     0.03  -0.07   0.06    -0.02   0.13  -0.07
   6   6     0.14   0.01  -0.05     0.06  -0.02  -0.03    -0.15  -0.01   0.04
   7   1     0.01   0.04   0.01     0.21   0.31   0.10    -0.01   0.02  -0.00
   8   1    -0.00   0.00   0.04    -0.04   0.05   0.39    -0.02   0.02   0.00
   9   1     0.04   0.14  -0.28    -0.03  -0.10   0.21    -0.06  -0.15   0.29
  10   1    -0.13   0.28   0.02     0.11  -0.20  -0.01     0.14  -0.30  -0.02
  11   1     0.34  -0.04   0.11     0.15  -0.03   0.05     0.32  -0.03   0.11
  12   1     0.21   0.04  -0.29     0.09   0.02  -0.13     0.19   0.05  -0.27
  13   1     0.00  -0.00  -0.04     0.04  -0.05  -0.39    -0.02   0.02   0.00
  14   1    -0.01  -0.04  -0.01    -0.21  -0.31  -0.10    -0.01   0.02  -0.00
  15   1     0.13  -0.28  -0.02    -0.11   0.20   0.01     0.14  -0.30  -0.02
  16   1    -0.04  -0.14   0.28     0.03   0.10  -0.21    -0.06  -0.15   0.29
  17   1    -0.21  -0.04   0.29    -0.09  -0.02   0.13     0.19   0.05  -0.27
  18   1    -0.34   0.04  -0.11    -0.15   0.03  -0.05     0.32  -0.03   0.11
                     34                     35                     36
                        a                      a                      a 
 Frequencies --  1493.8904              1495.6696              1510.1686
 Red. masses --     2.0598                 1.8564                 2.0408
 Frc consts  --     0.0000                 0.0000                 0.0000
 IR Inten    --     0.1749                 0.3889                 0.0000
 Raman Activ --     0.0000                 0.0000                 0.0000
 Depolar     --     0.0000                 0.0000                 0.0000
 Atom AN      X      Y      Z        X      Y      Z        X      Y      Z
   1   6    -0.05  -0.11  -0.13     0.03   0.06   0.09    -0.04  -0.08  -0.09
   2   6     0.03  -0.07   0.05     0.02  -0.09   0.07     0.03  -0.11   0.06
   3   6    -0.08   0.02   0.02    -0.10  -0.00   0.04     0.12  -0.00  -0.03
   4   6    -0.05  -0.11  -0.13     0.03   0.06   0.09     0.04   0.08   0.09
   5   6     0.03  -0.07   0.05     0.02  -0.09   0.07    -0.03   0.11  -0.06
   6   6    -0.08   0.02   0.02    -0.10  -0.00   0.04    -0.12   0.00   0.03
   7   1     0.21   0.31   0.10    -0.15  -0.23  -0.07     0.15   0.22   0.07
   8   1    -0.04   0.04   0.38     0.02  -0.04  -0.27    -0.03   0.03   0.27
   9   1     0.01   0.08  -0.19     0.03   0.12  -0.24     0.04   0.12  -0.24
  10   1    -0.10   0.18   0.01    -0.12   0.25   0.02    -0.12   0.25   0.02
  11   1     0.18  -0.04   0.05     0.26  -0.03   0.09    -0.26   0.03  -0.09
  12   1     0.10  -0.00  -0.16     0.16   0.03  -0.22    -0.15  -0.03   0.22
  13   1    -0.04   0.04   0.38     0.02  -0.04  -0.27     0.03  -0.03  -0.27
  14   1     0.21   0.31   0.10    -0.15  -0.23  -0.07    -0.15  -0.22  -0.07
  15   1    -0.10   0.18   0.01    -0.12   0.25   0.02     0.12  -0.25  -0.02
  16   1     0.01   0.08  -0.19     0.03   0.12  -0.24    -0.04  -0.12   0.24
  17   1     0.10  -0.00  -0.16     0.16   0.03  -0.22     0.15   0.03  -0.22
  18   1     0.18  -0.04   0.05     0.26  -0.03   0.09     0.26  -0.03   0.09
                     37                     38                     39
                        a                      a                      a 
 Frequencies --  2957.9515              2957.9605              2958.8594
 Red. masses --     1.9214                 1.9212                 1.8487
 Frc consts  --     0.0000                 0.0000                 0.0000
 IR Inten    --    27.0816                27.0191                 0.0000
 Raman Activ --     0.0000                 0.0000                 0.0000
 Depolar     --     0.0000                 0.0000                 0.0000
 Atom AN      X      Y      Z        X      Y      Z        X      Y      Z
   1   6    -0.00  -0.00   0.00    -0.08  -0.08   0.12    -0.05  -0.05   0.08
   2   6    -0.06   0.03   0.12     0.04  -0.02  -0.08     0.05  -0.03  -0.10
   3   6    -0.02   0.03  -0.14    -0.01   0.01  -0.08     0.02  -0.02   0.11
   4   6    -0.00  -0.00   0.00    -0.08  -0.08   0.12     0.05   0.05  -0.08
   5   6    -0.06   0.03   0.12     0.04  -0.02  -0.08    -0.05   0.03   0.10
   6   6    -0.02   0.03  -0.14    -0.01   0.01  -0.08    -0.02   0.02  -0.11
   7   1     0.01  -0.00  -0.01     0.13   0.06  -0.46     0.09   0.04  -0.33
   8   1     0.00   0.01   0.00     0.16   0.22   0.00     0.11   0.15   0.00
   9   1     0.12  -0.19  -0.07    -0.07   0.12   0.04    -0.09   0.15   0.05
  10   1     0.11   0.08  -0.39    -0.07  -0.05   0.24    -0.09  -0.07   0.33
  11   1    -0.13  -0.06   0.39    -0.07  -0.03   0.21     0.11   0.05  -0.32
  12   1     0.20  -0.03   0.13     0.11  -0.02   0.07    -0.15   0.03  -0.10
  13   1     0.00   0.01   0.00     0.16   0.22   0.00    -0.11  -0.15  -0.00
  14   1     0.01  -0.00  -0.01     0.13   0.06  -0.46    -0.09  -0.04   0.33
  15   1     0.11   0.08  -0.39    -0.07  -0.05   0.24     0.09   0.07  -0.33
  16   1     0.12  -0.19  -0.07    -0.07   0.12   0.04     0.09  -0.15  -0.05
  17   1     0.20  -0.03   0.13     0.11  -0.02   0.07     0.15  -0.03   0.10
  18   1    -0.14  -0.06   0.39    -0.07  -0.03   0.21    -0.11  -0.05   0.32
                     40                     41                     42
                        a                      a                      a 
 Frequencies --  2965.2939              2965.3019              2968.2310
 Red. masses --     1.9992                 1.9993                 1.6958
 Frc consts  --     0.0000                 0.0000                 0.0000
 IR Inten    --     0.0000                 0.0000                16.6408
 Raman Activ --     0.0000                 0.0000                 0.0000
 Depolar     --     0.0000                 0.0000                 0.0000
 Atom AN      X      Y      Z        X      Y      Z        X      Y      Z
   1   6     0.05   0.07  -0.05     0.08   0.09  -0.08    -0.06  -0.08   0.01
   2   6    -0.03   0.04   0.05     0.08  -0.07  -0.12    -0.05   0.08   0.04
   3   6     0.07  -0.03   0.15    -0.01  -0.00  -0.02     0.08  -0.02   0.06
   4   6    -0.05  -0.07   0.05    -0.08  -0.09   0.08    -0.06  -0.08   0.01
   5   6     0.03  -0.04  -0.05    -0.08   0.07   0.12    -0.05   0.08   0.04
   6   6    -0.07   0.03  -0.15     0.01   0.00   0.02     0.08  -0.02   0.06
   7   1    -0.05  -0.02   0.18    -0.06  -0.03   0.25    -0.01  -0.01   0.01
   8   1    -0.15  -0.21   0.01    -0.22  -0.30   0.01     0.23   0.32  -0.02
   9   1     0.09  -0.15  -0.06    -0.20   0.33   0.13     0.20  -0.31  -0.14
  10   1     0.03   0.03  -0.12    -0.07  -0.06   0.27    -0.01   0.01   0.01
  11   1     0.11   0.05  -0.29    -0.01  -0.00   0.03     0.01  -0.00   0.02
  12   1    -0.36   0.07  -0.25     0.03  -0.01   0.02    -0.31   0.06  -0.23
  13   1     0.15   0.21  -0.01     0.22   0.30  -0.01     0.23   0.32  -0.02
  14   1     0.05   0.02  -0.18     0.06   0.03  -0.25    -0.01  -0.01   0.01
  15   1    -0.03  -0.03   0.12     0.07   0.06  -0.27    -0.01   0.01   0.01
  16   1    -0.09   0.15   0.06     0.20  -0.33  -0.13     0.20  -0.31  -0.14
  17   1     0.36  -0.07   0.25    -0.03   0.01  -0.02    -0.31   0.06  -0.23
  18   1    -0.11  -0.05   0.29     0.01   0.00  -0.03     0.01  -0.00   0.02
                     43                     44                     45
                        a                      a                      a 
 Frequencies --  2976.0441              2976.0897              2982.4184
 Red. masses --     1.5096                 1.5098                 1.5220
 Frc consts  --     0.0000                 0.0000                 0.0000
 IR Inten    --     0.0000                 0.0000               166.5203
 Raman Activ --     0.0000                 0.0000                 0.0000
 Depolar     --     0.0000                 0.0000                 0.0000
 Atom AN      X      Y      Z        X      Y      Z        X      Y      Z
   1   6     0.01   0.01   0.02    -0.01  -0.05  -0.11     0.02   0.04   0.03
   2   6     0.01  -0.08   0.08    -0.01   0.03  -0.03    -0.04   0.11  -0.02
   3   6    -0.08  -0.01   0.05    -0.07   0.00   0.04    -0.07   0.01  -0.00
   4   6    -0.01  -0.01  -0.02     0.01   0.05   0.11     0.02   0.04   0.03
   5   6    -0.01   0.08  -0.08     0.01  -0.03   0.03    -0.04   0.11  -0.02
   6   6     0.08   0.01  -0.05     0.07  -0.00  -0.04    -0.07   0.01  -0.00
   7   1     0.03   0.02  -0.09    -0.13  -0.07   0.42     0.04   0.02  -0.12
   8   1    -0.04  -0.05   0.01     0.19   0.25  -0.04    -0.13  -0.17   0.02
   9   1    -0.16   0.24   0.12     0.05  -0.08  -0.04     0.24  -0.38  -0.18
  10   1     0.13   0.06  -0.41    -0.04  -0.02   0.13    -0.09  -0.03   0.27
  11   1     0.09   0.05  -0.32     0.08   0.05  -0.29     0.04   0.03  -0.15
  12   1     0.19  -0.04   0.15     0.17  -0.03   0.14     0.21  -0.04   0.16
  13   1     0.04   0.05  -0.01    -0.19  -0.25   0.04    -0.13  -0.17   0.02
  14   1    -0.03  -0.02   0.09     0.13   0.07  -0.42     0.04   0.02  -0.12
  15   1    -0.13  -0.06   0.41     0.04   0.02  -0.13    -0.09  -0.03   0.27
  16   1     0.16  -0.24  -0.12    -0.05   0.08   0.04     0.24  -0.38  -0.18
  17   1    -0.19   0.04  -0.15    -0.17   0.03  -0.14     0.21  -0.04   0.16
  18   1    -0.09  -0.05   0.32    -0.08  -0.05   0.29     0.04   0.03  -0.15
                     46                     47                     48
                        a                      a                      a 
 Frequencies --  2982.4322              2984.8120              2985.5744
 Red. masses --     1.5220                 1.5392                 1.8136
 Frc consts  --     0.0000                 0.0000                 0.0000
 IR Inten    --   166.3628                 0.0000               296.1368
 Raman Activ --     0.0000                 0.0000                 0.0000
 Depolar     --     0.0000                 0.0000                 0.0000
 Atom AN      X      Y      Z        X      Y      Z        X      Y      Z
   1   6     0.05   0.08   0.06     0.04   0.07   0.04     0.03   0.02  -0.10
   2   6     0.00   0.01   0.00    -0.03   0.08  -0.01     0.03   0.02  -0.10
   3   6     0.10  -0.00   0.01    -0.09   0.01  -0.01     0.03   0.02  -0.10
   4   6     0.05   0.08   0.06    -0.04  -0.07  -0.04     0.03   0.02  -0.10
   5   6     0.00   0.01   0.00     0.03  -0.08   0.01     0.03   0.02  -0.10
   6   6     0.10  -0.00   0.01     0.09  -0.01   0.01     0.03   0.02  -0.10
   7   1     0.08   0.05  -0.24     0.06   0.04  -0.18    -0.11  -0.06   0.37
   8   1    -0.26  -0.35   0.04    -0.21  -0.28   0.03    -0.00  -0.00  -0.01
   9   1     0.02  -0.02  -0.01     0.18  -0.27  -0.13    -0.00   0.01  -0.01
  10   1    -0.00  -0.00   0.02    -0.06  -0.02   0.18    -0.11  -0.07   0.37
  11   1    -0.06  -0.04   0.23     0.05   0.03  -0.18    -0.12  -0.06   0.37
  12   1    -0.32   0.06  -0.24     0.27  -0.05   0.21     0.01   0.00  -0.01
  13   1    -0.26  -0.35   0.04     0.21   0.28  -0.03    -0.00  -0.00  -0.01
  14   1     0.08   0.05  -0.24    -0.06  -0.04   0.18    -0.11  -0.06   0.37
  15   1    -0.00  -0.00   0.02     0.06   0.02  -0.18    -0.11  -0.07   0.37
  16   1     0.02  -0.02  -0.01    -0.18   0.27   0.13    -0.00   0.01  -0.01
  17   1    -0.32   0.06  -0.24    -0.27   0.05  -0.21     0.01   0.00  -0.01
  18   1    -0.06  -0.04   0.23    -0.05  -0.03   0.18    -0.12  -0.06   0.37
