18
 energy: -18.986715862819 gnorm: 0.000074838966 xtb: 6.7.1pre (5071a88)
C           -0.69571388075617       -1.11850164493340       -0.64651311876533
C            0.55100346668839       -1.34460592793961        0.20365032744669
C            1.45355481453328       -0.11494695127132        0.16434390662502
C            0.69571393534473        1.11850159943219        0.64651304313924
C           -0.55100345826210        1.34460593977032       -0.20365032883127
C           -1.45355481264597        0.11494695318406       -0.16434416485435
H           -0.40130389601181       -0.97706931400208       -1.68928405392950
H           -1.34381339125969       -1.99642599661259       -0.59820743173264
H            1.09617389951573       -2.21862978650549       -0.15965269168087
H            0.25333089728098       -1.54156974230815        1.23643677879273
H            1.79642059001279        0.04911092876640       -0.86014603461837
H            2.33417762967931       -0.27906735125233        0.78939232525416
H            1.34381341746182        1.99642596493232        0.59820741660727
H            0.40130399535434        0.97706916945983        1.68928398292849
H           -0.25333096257226        1.54156997681247       -1.23643676810697
H           -1.09617393533493        2.21862969377004        0.15965289422332
H           -2.33417748833413        0.27906740607713       -0.78939278764197
H           -1.79642082069431       -0.04911091737979        0.86014570514436
