      -----------------------------------------------------------      
     |                   =====================                   |     
     |                           x T B                           |     
     |                   =====================                   |     
     |                         S. Grimme                         |     
     |          Mulliken Center for Theoretical Chemistry        |     
     |                    University of Bonn                     |     
      -----------------------------------------------------------      

   * xtb version 6.7.1pre (5071a88) compiled by 'Marcel@Raven' on 2024-07-23

   xtb is free software: you can redistribute it and/or modify it under
   the terms of the GNU Lesser General Public License as published by
   the Free Software Foundation, either version 3 of the License, or
   (at your option) any later version.
   
   xtb is distributed in the hope that it will be useful,
   but WITHOUT ANY WARRANTY; without even the implied warranty of
   MERCHANTABILITY or FITNESS FOR A PARTICULAR PURPOSE.  See the
   GNU Lesser General Public License for more details.
   
   Cite this work as:
   * C. Bannwarth, E. Caldeweyher, S. Ehlert, A. Hansen, P. Pracht,
     J. Seibert, S. Spicher, S. Grimme, WIREs Comput. Mol. Sci., 2020, 11,
     e01493. DOI: 10.1002/wcms.1493
   
   for GFN2-xTB:
   * C. Bannwarth, S. Ehlert and S. Grimme., J. Chem. Theory Comput., 2019,
     15, 1652-1671. DOI: 10.1021/acs.jctc.8b01176
   for GFN1-xTB:
   * S. Grimme, C. Bannwarth, P. Shushkov, J. Chem. Theory Comput., 2017,
     13, 1989-2009. DOI: 10.1021/acs.jctc.7b00118
   for GFN0-xTB:
   * P. Pracht, E. Caldeweyher, S. Ehlert, S. Grimme, ChemRxiv, 2019, preprint.
     DOI: 10.26434/chemrxiv.8326202.v1
   for GFN-FF:
   * S. Spicher and S. Grimme, Angew. Chem. Int. Ed., 2020, 59, 15665-15673.
     DOI: 10.1002/anie.202004239
   
   for ALPB and GBSA implicit solvation:
   * S. Ehlert, M. Stahn, S. Spicher, S. Grimme, J. Chem. Theory Comput.,
     2021, 17, 4250-4261. DOI: 10.1021/acs.jctc.1c00471
   
   for ddCOSMO and CPCM-X implicit solvation:
   * M. Stahn, S. Ehlert, S. Grimme, J. Phys. Chem. A,
     2023, XX, XXXX-XXXX. DOI: 10.1021/acs.jpca.3c04382
   
   for DFT-D4:
   * E. Caldeweyher, C. Bannwarth and S. Grimme, J. Chem. Phys., 2017,
     147, 034112. DOI: 10.1063/1.4993215
   * E. Caldeweyher, S. Ehlert, A. Hansen, H. Neugebauer, S. Spicher,
     C. Bannwarth and S. Grimme, J. Chem. Phys., 2019, 150, 154122.
     DOI: 10.1063/1.5090222
   * E. Caldeweyher, J.-M. Mewes, S. Ehlert and S. Grimme, Phys. Chem. Chem. Phys.
     2020, 22, 8499-8512. DOI: 10.1039/D0CP00502A
   
   for sTDA-xTB:
   * S. Grimme and C. Bannwarth, J. Chem. Phys., 2016, 145, 054103.
     DOI: 10.1063/1.4959605
   
   in the mass-spec context:
   * V. Asgeirsson, C. Bauer and S. Grimme, Chem. Sci., 2017, 8, 4879.
     DOI: 10.1039/c7sc00601b
   * J. Koopman and S. Grimme, ACS Omega 2019, 4, 12, 15120-15133.
     DOI: 10.1021/acsomega.9b02011
   
   for metadynamics refer to:
   * S. Grimme, J. Chem. Theory Comput., 2019, 155, 2847-2862
     DOI: 10.1021/acs.jctc.9b00143
   
   for SPH calculations refer to:
   * S. Spicher and S. Grimme, J. Chem. Theory Comput., 2021, 17, 1701-1714
     DOI: 10.1021/acs.jctc.0c01306
   
   for ONIOM refer to:
   * C. Plett, A. Katbashev, S. Ehlert, S. Grimme, M. Bursch,
     Phys. Chem. Chem. Phys., 2023, 25, 17860-17868. DOI: 10.1039/D3CP02178E
   
   for DIPRO refer to:
   * J. Kohn, N. Gildemeister, S. Grimme, D. Fazzi, A. Hansen,
     J. Chem. Phys., 2023, just accepted.
   
   for PTB refer to:
   * S. Grimme, M. Mueller, A. Hansen, J. Chem. Phys., 2023, 158, 124111.
     DOI: 10.1063/5.0137838
   
   with help from (in alphabetical order)
   P. Atkinson, C. Bannwarth, F. Bohle, G. Brandenburg, E. Caldeweyher
   M. Checinski, S. Dohm, S. Ehlert, S. Ehrlich, I. Gerasimov, C. Hölzer
   A. Katbashev, J. Kohn, J. Koopman, C. Lavigne, S. Lehtola, F. März, M. Müller,
   F. Musil, H. Neugebauer, J. Pisarek, C. Plett, P. Pracht, F. Pultar,
   J. Seibert, P. Shushkov, S. Spicher, M. Stahn, M. Steiner, T. Strunk,
   J. Stückrath, T. Rose, and J. Unsleber
   
 * started run on 2026/09/17 at 00:40:29.145     
   ID    Z sym.   atoms
    1    6 C      1-6
    2    1 H      7-18

           -------------------------------------------------
          |                Calculation Setup                |
           -------------------------------------------------

          program call               : C:\ORCA_6.1.1\xtb-6.7.1pre\xtb.exe optimized.xyz --gfn 2 --chrg 0 --uhf 0 --hess --json
          coordinate file            : optimized.xyz
          omp threads                :                     4


           -------------------------------------------------
          |                 G F N 2 - x T B                 |
           -------------------------------------------------

        Reference                      10.1021/acs.jctc.8b01176
      * Hamiltonian:
        H0-scaling (s, p, d)           1.850000    2.230000    2.230000
        zeta-weighting                 0.500000
      * Dispersion:
        s8                             2.700000
        a1                             0.520000
        a2                             5.000000
        s9                             5.000000
      * Repulsion:
        kExp                           1.500000    1.000000
        rExp                           1.000000
      * Coulomb:
        alpha                          2.000000
        third order                    shell-resolved
        anisotropic                    true
        a3                             3.000000
        a5                             4.000000
        cn-shift                       1.200000
        cn-exp                         4.000000
        max-rad                        5.000000


          ...................................................
          :                      SETUP                      :
          :.................................................:
          :  # basis functions                  36          :
          :  # atomic orbitals                  36          :
          :  # shells                           24          :
          :  # electrons                        36          :
          :  max. iterations                   250          :
          :  Hamiltonian                  GFN2-xTB          :
          :  restarted?                      false          :
          :  GBSA solvation                  false          :
          :  PC potential                    false          :
          :  electronic temp.          300.0000000     K    :
          :  accuracy                    1.0000000          :
          :  -> integral cutoff          0.2500000E+02      :
          :  -> integral neglect         0.1000000E-07      :
          :  -> SCF convergence          0.1000000E-05 Eh   :
          :  -> wf. convergence          0.1000000E-03 e    :
          :  Broyden damping             0.4000000          :
          :  net charge                          0          :
          :  unpaired electrons                  0          :
          ...................................................

 iter      E             dE          RMSdq      gap      omega  full diag
   1    -19.2140659 -0.192141E+02  0.250E+00   13.68       0.0  T
   2    -19.2671249 -0.530590E-01  0.139E+00   13.76       1.0  T
   3    -19.2675063 -0.381413E-03  0.754E-01   13.71       1.0  T
   4    -19.2676456 -0.139249E-03  0.782E-02   13.66       1.0  T
   5    -19.2676464 -0.891056E-06  0.696E-03   13.66       3.4  T
   6    -19.2676465 -0.405084E-07  0.275E-03   13.66       8.6  T
   7    -19.2676465 -0.800037E-08  0.155E-04   13.66     152.4  T
   8    -19.2676465  0.614619E-12  0.150E-05   13.66    1571.9  T

   *** convergence criteria satisfied after 8 iterations ***

         #    Occupation            Energy/Eh            Energy/eV
      -------------------------------------------------------------
         1        2.0000           -0.6290550             -17.1175
       ...           ...                  ...                  ...
        12        2.0000           -0.4614037             -12.5554
        13        2.0000           -0.4614037             -12.5554
        14        2.0000           -0.4340341             -11.8107
        15        2.0000           -0.4340340             -11.8107
        16        2.0000           -0.4168056             -11.3419
        17        2.0000           -0.4091341             -11.1331
        18        2.0000           -0.4091341             -11.1331 (HOMO)
        19                          0.0928827               2.5275 (LUMO)
        20                          0.1022933               2.7835
        21                          0.1022933               2.7835
        22                          0.1166759               3.1749
        23                          0.1166760               3.1749
       ...                                ...                  ...
        36                          0.3090335               8.4092
      -------------------------------------------------------------
                  HL-Gap            0.5020168 Eh           13.6606 eV
             Fermi-level           -0.1581257 Eh           -4.3028 eV

 SCC (total)                   0 d,  0 h,  0 min,  0.006 sec
 SCC setup                      ...        0 min,  0.000 sec (  0.000%)
 Dispersion                     ...        0 min,  0.000 sec (  0.000%)
 classical contributions        ...        0 min,  0.000 sec (  0.000%)
 integral evaluation            ...        0 min,  0.001 sec ( 16.665%)
 iterations                     ...        0 min,  0.003 sec ( 50.000%)
 molecular gradient             ...        0 min,  0.001 sec ( 16.665%)
 printout                       ...        0 min,  0.001 sec ( 16.669%)

         :::::::::::::::::::::::::::::::::::::::::::::::::::::
         ::                     SUMMARY                     ::
         :::::::::::::::::::::::::::::::::::::::::::::::::::::
         :: total energy             -18.986715862817 Eh    ::
         :: gradient norm              0.000074909050 Eh/a0 ::
         :: HOMO-LUMO gap             13.660572163153 eV    ::
         ::.................................................::
         :: SCC energy               -19.267618287225 Eh    ::
         :: -> isotropic ES            0.002640129596 Eh    ::
         :: -> anisotropic ES          0.005155986875 Eh    ::
         :: -> anisotropic XC          0.010961020085 Eh    ::
         :: -> dispersion             -0.011272881889 Eh    ::
         :: repulsion energy           0.280902424408 Eh    ::
         :: add. restraining           0.000000000000 Eh    ::
         :: total charge               0.000000000000 e     ::
         :::::::::::::::::::::::::::::::::::::::::::::::::::::

           ------------------------------------------------- 
          |                Numerical Hessian                |
           ------------------------------------------------- 
step length          :   0.00500
SCC accuracy         :   0.30000
Hessian scale factor :   1.00000
frozen atoms in %    :   0.00000    0
RMS gradient         :   0.00007
estimated CPU  time      0.04 min
estimated wall time      0.01 min

writing file <hessian>.

 projected vibrational frequencies (cm⁻¹)
eigval :       -0.00    -0.00    -0.00    -0.00     0.00     0.00
eigval :      231.91   231.93   375.89   418.96   418.97   539.98
eigval :      823.15   823.21   869.32   931.85   931.90   938.02
eigval :      938.04  1013.06  1063.82  1096.49  1096.51  1125.26
eigval :     1160.63  1178.68  1249.13  1249.17  1251.51  1251.54
eigval :     1331.92  1350.44  1350.46  1350.49  1360.45  1360.49
eigval :     1485.24  1485.29  1493.85  1493.89  1495.67  1510.17
eigval :     2957.95  2957.96  2958.86  2965.29  2965.30  2968.23
eigval :     2976.04  2976.09  2982.42  2982.43  2984.81  2985.57
           -------------------------------------------------
          |                Property Printout                |
           -------------------------------------------------

    * Orbital Energies and Occupations

         #    Occupation            Energy/Eh            Energy/eV
      -------------------------------------------------------------
         1        2.0000           -0.6290547             -17.1175
       ...           ...                  ...                  ...
         6        2.0000           -0.5453787             -14.8405
         7        2.0000           -0.5188647             -14.1190
         8        2.0000           -0.4950072             -13.4698
         9        2.0000           -0.4950072             -13.4698
        10        2.0000           -0.4910076             -13.3610
        11        2.0000           -0.4656508             -12.6710
        12        2.0000           -0.4614035             -12.5554
        13        2.0000           -0.4614035             -12.5554
        14        2.0000           -0.4340339             -11.8107
        15        2.0000           -0.4340338             -11.8107
        16        2.0000           -0.4168055             -11.3419
        17        2.0000           -0.4091339             -11.1331
        18        2.0000           -0.4091339             -11.1331 (HOMO)
        19                          0.0928829               2.5275 (LUMO)
        20                          0.1022935               2.7835
        21                          0.1022936               2.7836
        22                          0.1166762               3.1749
        23                          0.1166763               3.1749
        24                          0.1196227               3.2551
        25                          0.1417854               3.8582
        26                          0.1874635               5.1011
        27                          0.1874635               5.1011
        28                          0.1932676               5.2591
        29                          0.2009400               5.4679
       ...                                ...                  ...
        36                          0.3090338               8.4092
      -------------------------------------------------------------
                  HL-Gap            0.5020168 Eh           13.6606 eV
             Fermi-level           -0.1581255 Eh           -4.3028 eV

     #   Z          covCN         q      C6AA      α(0)
     1   6 C        3.806    -0.054    21.546     6.608
     2   6 C        3.806    -0.054    21.546     6.608
     3   6 C        3.806    -0.054    21.546     6.608
     4   6 C        3.806    -0.054    21.546     6.608
     5   6 C        3.806    -0.054    21.546     6.608
     6   6 C        3.806    -0.054    21.546     6.608
     7   1 H        0.924     0.030     2.585     2.515
     8   1 H        0.924     0.024     2.670     2.555
     9   1 H        0.924     0.024     2.670     2.555
    10   1 H        0.924     0.030     2.585     2.515
    11   1 H        0.924     0.030     2.585     2.515
    12   1 H        0.924     0.024     2.670     2.555
    13   1 H        0.924     0.024     2.670     2.555
    14   1 H        0.924     0.030     2.585     2.515
    15   1 H        0.924     0.030     2.585     2.515
    16   1 H        0.924     0.024     2.670     2.555
    17   1 H        0.924     0.024     2.670     2.555
    18   1 H        0.924     0.030     2.585     2.515

 Mol. C6AA /au·bohr⁶  :       2230.550209
 Mol. C8AA /au·bohr⁸  :      47136.015896
 Mol. α(0) /au        :         70.066192


Wiberg/Mayer (AO) data.
largest (>0.10) Wiberg bond orders for each atom

 ---------------------------------------------------------------------------
     #   Z sym  total        # sym  WBO       # sym  WBO       # sym  WBO
 ---------------------------------------------------------------------------
     1   6 C    3.998 --     2 C    1.009     6 C    1.009     8 H    0.978
                             7 H    0.978
     2   6 C    3.998 --     3 C    1.009     1 C    1.009     9 H    0.978
                            10 H    0.978
     3   6 C    3.998 --     2 C    1.009     4 C    1.009    12 H    0.978
                            11 H    0.978
     4   6 C    3.998 --     5 C    1.009     3 C    1.009    13 H    0.978
                            14 H    0.978
     5   6 C    3.998 --     6 C    1.009     4 C    1.009    16 H    0.978
                            15 H    0.978
     6   6 C    3.998 --     5 C    1.009     1 C    1.009    17 H    0.978
                            18 H    0.978
     7   1 H    0.999 --     1 C    0.978
     8   1 H    0.999 --     1 C    0.978
     9   1 H    0.999 --     2 C    0.978
    10   1 H    0.999 --     2 C    0.978
    11   1 H    0.999 --     3 C    0.978
    12   1 H    0.999 --     3 C    0.978
    13   1 H    0.999 --     4 C    0.978
    14   1 H    0.999 --     4 C    0.978
    15   1 H    0.999 --     5 C    0.978
    16   1 H    0.999 --     5 C    0.978
    17   1 H    0.999 --     6 C    0.978
    18   1 H    0.999 --     6 C    0.978
 ---------------------------------------------------------------------------

Topologies differ in total number of bonds
Writing topology from bond orders to xtbtopo.mol

molecular dipole:
                 x           y           z       tot (Debye)
 q only:        0.000      -0.000       0.000
   full:       -0.000       0.000       0.000       0.000
molecular quadrupole (traceless):
                xx          xy          yy          xz          yz          zz
 q only:       -0.002       0.000      -0.003      -0.003      -0.001       0.005
  q+dip:       -0.600       0.104      -0.737      -0.643      -0.345       1.337
   full:       -0.313       0.054      -0.384      -0.335      -0.180       0.697

           -------------------------------------------------
          |               Frequency Printout                |
           -------------------------------------------------
 projected vibrational frequencies (cm⁻¹)
eigval :       -0.00    -0.00    -0.00    -0.00     0.00     0.00
eigval :      231.91   231.93   375.89   418.96   418.97   539.98
eigval :      823.15   823.21   869.32   931.85   931.90   938.02
eigval :      938.04  1013.06  1063.82  1096.49  1096.51  1125.26
eigval :     1160.63  1178.68  1249.13  1249.17  1251.51  1251.54
eigval :     1331.92  1350.44  1350.46  1350.49  1360.45  1360.49
eigval :     1485.24  1485.29  1493.85  1493.89  1495.67  1510.17
eigval :     2957.95  2957.96  2958.86  2965.29  2965.30  2968.23
eigval :     2976.04  2976.09  2982.42  2982.43  2984.81  2985.57
 reduced masses (amu)
   1:  9.14   2:  9.59   3:  9.22   4: 10.24   5:  9.91   6:  9.61   7:  6.25   8:  6.25
   9:  5.45  10:  9.15  11:  9.15  12:  4.39  13:  4.42  14:  4.42  15:  9.44  16:  4.39
  17:  4.40  18:  6.89  19:  6.89  20:  7.87  21:  1.02  22:  5.93  23:  5.93  24:  5.27
  25:  3.89  26:  7.74  27:  3.24  28:  3.24  29:  3.89  30:  3.89  31:  3.75  32:  4.73
  33:  4.73  34:  4.86  35:  5.37  36:  5.37  37:  1.88  38:  1.88  39:  2.06  40:  2.06
  41:  1.86  42:  2.04  43:  1.92  44:  1.92  45:  1.85  46:  2.00  47:  2.00  48:  1.70
  49:  1.51  50:  1.51  51:  1.52  52:  1.52  53:  1.54  54:  1.81
 IR intensities (km·mol⁻¹)
   1:  0.00   2:  0.00   3:  0.00   4:  0.00   5:  0.00   6:  0.00   7:  0.11   8:  0.11
   9:  0.00  10:  0.00  11:  0.00  12:  3.28  13:  0.00  14:  0.00  15:  0.00  16:  6.13
  17:  5.92  18:  0.04  19:  0.04  20:  4.12  21:  0.00  22:  0.00  23:  0.00  24:  0.00
  25:  0.00  26:  0.00  27:  0.00  28:  0.00  29:  1.08  30:  1.12  31:  0.00  32:  3.47
  33:  3.55  34:  0.16  35:  0.00  36:  0.00  37:  0.00  38:  0.00  39:  0.19  40:  0.17
  41:  0.39  42:  0.00  43: 27.08  44: 27.02  45:  0.00  46:  0.00  47:  0.00  48: 16.64
  49:  0.00  50:  0.00  51:166.52  52:166.36  53:  0.00  54:296.14
 Raman intensities (Ä⁴*amu⁻¹)
   1:  0.00   2:  0.00   3:  0.00   4:  0.00   5:  0.00   6:  0.00   7:  0.00   8:  0.00
   9:  0.00  10:  0.00  11:  0.00  12:  0.00  13:  0.00  14:  0.00  15:  0.00  16:  0.00
  17:  0.00  18:  0.00  19:  0.00  20:  0.00  21:  0.00  22:  0.00  23:  0.00  24:  0.00
  25:  0.00  26:  0.00  27:  0.00  28:  0.00  29:  0.00  30:  0.00  31:  0.00  32:  0.00
  33:  0.00  34:  0.00  35:  0.00  36:  0.00  37:  0.00  38:  0.00  39:  0.00  40:  0.00
  41:  0.00  42:  0.00  43:  0.00  44:  0.00  45:  0.00  46:  0.00  47:  0.00  48:  0.00
  49:  0.00  50:  0.00  51:  0.00  52:  0.00  53:  0.00  54:  0.00
 output can be read by thermo (or use thermo option).
 writing <g98.out> molden fake output.
 recommended (thermochemical) frequency scaling factor: 1.0
           -------------------------------------------------
          |             Thermodynamic Functions             |
           -------------------------------------------------

Molecule has the following symmetry elements: (i) (C3) 3*(C2) (S6) 3*(sigma) 
It seems to be the D3d point group
d3d symmetry found (for desy threshold:  0.10E+00) used in thermo

          ...................................................
          :                      SETUP                      :
          :.................................................:
          :  # frequencies                          48      :
          :  # imaginary freq.                       0      :
          :  linear?                             false      :
          :  only rotor calc.                    false      :
          :  symmetry                              d3d      :
          :  rotational number                       6      :
          :  scaling factor                  1.0000000      :
          :  rotor cutoff                   50.0000000 cm⁻¹ :
          :  imag. cutoff                  -20.0000000 cm⁻¹ :
          :.................................................:

    mode    ω/cm⁻¹     T·S(HO)/kcal·mol⁻¹    T·S(FR)/kcal·mol⁻¹   T·S(vib)
   ------------------------------------------------------------------------
       1    231.91    -0.55579 ( 99.78%)    -0.60187 (  0.22%)    -0.55589
       2    231.93    -0.55575 ( 99.78%)    -0.60185 (  0.22%)    -0.55585
   ------------------------------------------------------------------------

   temp. (K)  partition function   enthalpy   heat capacity  entropy
                                   cal/mol     cal/K/mol   cal/K/mol   J/K/mol
 298.15  VIB   4.41                 1785.592     16.569      8.941
         ROT  0.209E+05              888.752      2.981     22.749
         INT  0.923E+05             2674.345     19.550     31.690
         TR   0.747E+27             1481.254      4.968     39.186
         TOT                        4155.5985    24.5185    70.8761   296.5457

       T/K    H(0)-H(T)+PV         H(T)/Eh          T*S/Eh         G(T)/Eh
   ------------------------------------------------------------------------
    298.15    0.662237E-02    0.175066E+00    0.336755E-01    0.141391E+00
   ------------------------------------------------------------------------

         :::::::::::::::::::::::::::::::::::::::::::::::::::::
         ::                  THERMODYNAMIC                  ::
         :::::::::::::::::::::::::::::::::::::::::::::::::::::
         :: total free energy         -18.845325313296 Eh   ::
         ::.................................................::
         :: total energy              -18.986715862820 Eh   ::
         :: zero point energy           0.168443710077 Eh   ::
         :: G(RRHO) w/o ZPVE           -0.027053160553 Eh   ::
         :: G(RRHO) contrib.            0.141390549524 Eh   ::
         :::::::::::::::::::::::::::::::::::::::::::::::::::::

           -------------------------------------------------
          | TOTAL ENERGY              -18.986715862820 Eh   |
          | TOTAL ENTHALPY            -18.811649785023 Eh   |
          | TOTAL FREE ENERGY         -18.845325313296 Eh   |
          | GRADIENT NORM               0.000074838500 Eh/α |
          | HOMO-LUMO GAP              13.660571729439 eV   |
           -------------------------------------------------

------------------------------------------------------------------------
 * finished run on 2026/09/17 at 00:40:29.380     
------------------------------------------------------------------------
 total:
 * wall-time:     0 d,  0 h,  0 min,  0.233 sec
 *  cpu-time:     0 d,  0 h,  0 min,  0.906 sec
 * ratio c/w:     3.889 speedup
 SCF:
 * wall-time:     0 d,  0 h,  0 min,  0.006 sec
 *  cpu-time:     0 d,  0 h,  0 min,  0.062 sec
 * ratio c/w:    10.417 speedup
 analytical hessian:
 * wall-time:     0 d,  0 h,  0 min,  0.176 sec
 *  cpu-time:     0 d,  0 h,  0 min,  0.672 sec
 * ratio c/w:     3.817 speedup

