      -----------------------------------------------------------      
     |                   =====================                   |     
     |                           x T B                           |     
     |                   =====================                   |     
     |                         S. Grimme                         |     
     |          Mulliken Center for Theoretical Chemistry        |     
     |                    University of Bonn                     |     
      -----------------------------------------------------------      

   * xtb version 6.7.1pre (5071a88) compiled by 'Marcel@Raven' on 2024-07-23

   xtb is free software: you can redistribute it and/or modify it under
   the terms of the GNU Lesser General Public License as published by
   the Free Software Foundation, either version 3 of the License, or
   (at your option) any later version.
   
   xtb is distributed in the hope that it will be useful,
   but WITHOUT ANY WARRANTY; without even the implied warranty of
   MERCHANTABILITY or FITNESS FOR A PARTICULAR PURPOSE.  See the
   GNU Lesser General Public License for more details.
   
   Cite this work as:
   * C. Bannwarth, E. Caldeweyher, S. Ehlert, A. Hansen, P. Pracht,
     J. Seibert, S. Spicher, S. Grimme, WIREs Comput. Mol. Sci., 2020, 11,
     e01493. DOI: 10.1002/wcms.1493
   
   for GFN2-xTB:
   * C. Bannwarth, S. Ehlert and S. Grimme., J. Chem. Theory Comput., 2019,
     15, 1652-1671. DOI: 10.1021/acs.jctc.8b01176
   for GFN1-xTB:
   * S. Grimme, C. Bannwarth, P. Shushkov, J. Chem. Theory Comput., 2017,
     13, 1989-2009. DOI: 10.1021/acs.jctc.7b00118
   for GFN0-xTB:
   * P. Pracht, E. Caldeweyher, S. Ehlert, S. Grimme, ChemRxiv, 2019, preprint.
     DOI: 10.26434/chemrxiv.8326202.v1
   for GFN-FF:
   * S. Spicher and S. Grimme, Angew. Chem. Int. Ed., 2020, 59, 15665-15673.
     DOI: 10.1002/anie.202004239
   
   for ALPB and GBSA implicit solvation:
   * S. Ehlert, M. Stahn, S. Spicher, S. Grimme, J. Chem. Theory Comput.,
     2021, 17, 4250-4261. DOI: 10.1021/acs.jctc.1c00471
   
   for ddCOSMO and CPCM-X implicit solvation:
   * M. Stahn, S. Ehlert, S. Grimme, J. Phys. Chem. A,
     2023, XX, XXXX-XXXX. DOI: 10.1021/acs.jpca.3c04382
   
   for DFT-D4:
   * E. Caldeweyher, C. Bannwarth and S. Grimme, J. Chem. Phys., 2017,
     147, 034112. DOI: 10.1063/1.4993215
   * E. Caldeweyher, S. Ehlert, A. Hansen, H. Neugebauer, S. Spicher,
     C. Bannwarth and S. Grimme, J. Chem. Phys., 2019, 150, 154122.
     DOI: 10.1063/1.5090222
   * E. Caldeweyher, J.-M. Mewes, S. Ehlert and S. Grimme, Phys. Chem. Chem. Phys.
     2020, 22, 8499-8512. DOI: 10.1039/D0CP00502A
   
   for sTDA-xTB:
   * S. Grimme and C. Bannwarth, J. Chem. Phys., 2016, 145, 054103.
     DOI: 10.1063/1.4959605
   
   in the mass-spec context:
   * V. Asgeirsson, C. Bauer and S. Grimme, Chem. Sci., 2017, 8, 4879.
     DOI: 10.1039/c7sc00601b
   * J. Koopman and S. Grimme, ACS Omega 2019, 4, 12, 15120-15133.
     DOI: 10.1021/acsomega.9b02011
   
   for metadynamics refer to:
   * S. Grimme, J. Chem. Theory Comput., 2019, 155, 2847-2862
     DOI: 10.1021/acs.jctc.9b00143
   
   for SPH calculations refer to:
   * S. Spicher and S. Grimme, J. Chem. Theory Comput., 2021, 17, 1701-1714
     DOI: 10.1021/acs.jctc.0c01306
   
   for ONIOM refer to:
   * C. Plett, A. Katbashev, S. Ehlert, S. Grimme, M. Bursch,
     Phys. Chem. Chem. Phys., 2023, 25, 17860-17868. DOI: 10.1039/D3CP02178E
   
   for DIPRO refer to:
   * J. Kohn, N. Gildemeister, S. Grimme, D. Fazzi, A. Hansen,
     J. Chem. Phys., 2023, just accepted.
   
   for PTB refer to:
   * S. Grimme, M. Mueller, A. Hansen, J. Chem. Phys., 2023, 158, 124111.
     DOI: 10.1063/5.0137838
   
   with help from (in alphabetical order)
   P. Atkinson, C. Bannwarth, F. Bohle, G. Brandenburg, E. Caldeweyher
   M. Checinski, S. Dohm, S. Ehlert, S. Ehrlich, I. Gerasimov, C. Hölzer
   A. Katbashev, J. Kohn, J. Koopman, C. Lavigne, S. Lehtola, F. März, M. Müller,
   F. Musil, H. Neugebauer, J. Pisarek, C. Plett, P. Pracht, F. Pultar,
   J. Seibert, P. Shushkov, S. Spicher, M. Stahn, M. Steiner, T. Strunk,
   J. Stückrath, T. Rose, and J. Unsleber
   
 * started run on 2026/09/17 at 00:40:31.721     
   ID    Z sym.   atoms
    1    6 C      1-8
    2    1 H      9-24

           -------------------------------------------------
          |                Calculation Setup                |
           -------------------------------------------------

          program call               : C:\ORCA_6.1.1\xtb-6.7.1pre\xtb.exe input.xyz --gfn 2 --chrg 0 --uhf 0 --opt tight --json
          coordinate file            : input.xyz
          omp threads                :                     4


           -------------------------------------------------
          |                 G F N 2 - x T B                 |
           -------------------------------------------------

        Reference                      10.1021/acs.jctc.8b01176
      * Hamiltonian:
        H0-scaling (s, p, d)           1.850000    2.230000    2.230000
        zeta-weighting                 0.500000
      * Dispersion:
        s8                             2.700000
        a1                             0.520000
        a2                             5.000000
        s9                             5.000000
      * Repulsion:
        kExp                           1.500000    1.000000
        rExp                           1.000000
      * Coulomb:
        alpha                          2.000000
        third order                    shell-resolved
        anisotropic                    true
        a3                             3.000000
        a5                             4.000000
        cn-shift                       1.200000
        cn-exp                         4.000000
        max-rad                        5.000000

q/qsh data taken from xtbrestart
CAMM data taken from xtbrestart

          ...................................................
          :                      SETUP                      :
          :.................................................:
          :  # basis functions                  48          :
          :  # atomic orbitals                  48          :
          :  # shells                           32          :
          :  # electrons                        48          :
          :  max. iterations                   250          :
          :  Hamiltonian                  GFN2-xTB          :
          :  restarted?                       true          :
          :  GBSA solvation                  false          :
          :  PC potential                    false          :
          :  electronic temp.          300.0000000     K    :
          :  accuracy                    1.0000000          :
          :  -> integral cutoff          0.2500000E+02      :
          :  -> integral neglect         0.1000000E-07      :
          :  -> SCF convergence          0.1000000E-05 Eh   :
          :  -> wf. convergence          0.1000000E-03 e    :
          :  Broyden damping             0.4000000          :
          :  net charge                          0          :
          :  unpaired electrons                  0          :
          ...................................................

 iter      E             dE          RMSdq      gap      omega  full diag
   1    -25.6799317 -0.256799E+02  0.149E-01   12.65       0.0  T
   2    -25.6799422 -0.104848E-04  0.867E-02   12.65       1.0  T
   3    -25.6799434 -0.117537E-05  0.893E-03   12.65       2.3  T
   4    -25.6799434 -0.618433E-07  0.305E-03   12.65       6.7  T
   5    -25.6799435 -0.134649E-07  0.881E-04   12.65      23.2  T
   6    -25.6799435 -0.518926E-08  0.241E-04   12.65      84.6  T

   *** convergence criteria satisfied after 6 iterations ***

         #    Occupation            Energy/Eh            Energy/eV
      -------------------------------------------------------------
         1        2.0000           -0.6284066             -17.0998
       ...           ...                  ...                  ...
        18        2.0000           -0.4440552             -12.0834
        19        2.0000           -0.4329026             -11.7799
        20        2.0000           -0.4320806             -11.7575
        21        2.0000           -0.4236897             -11.5292
        22        2.0000           -0.4120788             -11.2132
        23        2.0000           -0.4071312             -11.0786
        24        2.0000           -0.4048386             -11.0162 (HOMO)
        25                          0.0600006               1.6327 (LUMO)
        26                          0.0753899               2.0515
        27                          0.0880535               2.3961
        28                          0.1040639               2.8317
        29                          0.1092506               2.9729
       ...                                ...                  ...
        48                          0.3066163               8.3435
      -------------------------------------------------------------
                  HL-Gap            0.4648392 Eh           12.6489 eV
             Fermi-level           -0.1724190 Eh           -4.6918 eV

 SCC (total)                   0 d,  0 h,  0 min,  0.007 sec
 SCC setup                      ...        0 min,  0.000 sec (  0.000%)
 Dispersion                     ...        0 min,  0.000 sec (  0.000%)
 classical contributions        ...        0 min,  0.000 sec (  0.000%)
 integral evaluation            ...        0 min,  0.001 sec ( 14.288%)
 iterations                     ...        0 min,  0.004 sec ( 57.142%)
 molecular gradient             ...        0 min,  0.002 sec ( 28.569%)
 printout                       ...        0 min,  0.000 sec (  0.000%)

         :::::::::::::::::::::::::::::::::::::::::::::::::::::
         ::                     SUMMARY                     ::
         :::::::::::::::::::::::::::::::::::::::::::::::::::::
         :: total energy             -25.315670339895 Eh    ::
         :: gradient norm              0.016019360534 Eh/a0 ::
         :: HOMO-LUMO gap             12.648919053744 eV    ::
         ::.................................................::
         :: SCC energy               -25.679856508652 Eh    ::
         :: -> isotropic ES            0.003678091031 Eh    ::
         :: -> anisotropic ES          0.007687382484 Eh    ::
         :: -> anisotropic XC          0.014779551337 Eh    ::
         :: -> dispersion             -0.016709008727 Eh    ::
         :: repulsion energy           0.364186168757 Eh    ::
         :: add. restraining           0.000000000000 Eh    ::
         :: total charge               0.000000000000 e     ::
         :::::::::::::::::::::::::::::::::::::::::::::::::::::

      ----------------------------------------------------------- 
     |                   =====================                   |
     |                        A N C O P T                        |
     |                   =====================                   |
     |               Approximate Normal Coordinate               |
     |                Rational Function Optimizer                |
      ----------------------------------------------------------- 
      ----------------------------------------------------------- 
     |                   =====================                   |
     |                        A N C O P T                        |
     |                   =====================                   |
     |               Approximate Normal Coordinate               |
     |                Rational Function Optimizer                |
      ----------------------------------------------------------- 

          ...................................................
          :                      SETUP                      :
          :.................................................:
          :   optimization level             tight          :
          :   max. optcycles                   200          :
          :   ANC micro-cycles                  20          :
          :   degrees of freedom                66          :
          :.................................................:
          :   RF solver                   davidson          :
          :   write xtbopt.log                true          :
          :   linear?                        false          :
          :   energy convergence         0.1000000E-05 Eh   :
          :   grad. convergence          0.8000000E-03 Eh/α :
          :   maxmium RF displ.          1.0000000          :
          :   Hlow (freq-cutoff)         0.1000000E-01      :
          :   Hmax (freq-cutoff)         5.0000000          :
          :   S6 in model hess.         20.0000000          :
          ...................................................

generating ANC from exact Hessian ...
Using Lindh-Hessian (1995)
 Shifting diagonal of input Hessian by   7.708452305726747E-003
 Lowest  eigenvalues of input Hessian
    0.000000    0.000000    0.000000    0.000000    0.000000    0.000000
    0.010000    0.011020    0.012426    0.016323    0.016998    0.021332
    0.022192    0.025654    0.030391    0.031662    0.033027    0.049411
 Highest eigenvalues
    1.188490    1.211766    1.222436    1.239646    1.273901    1.289109
 

........................................................................
.............................. CYCLE    1 ..............................
........................................................................

 iter      E             dE          RMSdq      gap      omega  full diag
   1    -25.6799435 -0.256799E+02  0.815E-05   12.65       0.0  T
   2    -25.6799435 -0.205311E-10  0.442E-05   12.65     462.1  T
   3    -25.6799435 -0.984102E-12  0.210E-05   12.65     972.4  T
     SCC iter.                  ...        0 min,  0.002 sec
     gradient                   ...        0 min,  0.002 sec
 * total energy  :   -25.3156703 Eh     change       -0.4611778E-10 Eh
   gradient norm :     0.0160191 Eh/α   predicted     0.0000000E+00 (-100.00%)
   displ. norm   :     0.1531060 α      lambda       -0.1191042E-02
   maximum displ.:     0.0912001 α      in ANC's #8, #11, #7, ...

........................................................................
.............................. CYCLE    2 ..............................
........................................................................

 iter      E             dE          RMSdq      gap      omega  full diag
   1    -25.6884527 -0.256885E+02  0.833E-02   12.71       0.0  T
   2    -25.6884569 -0.418848E-05  0.476E-02   12.71       1.0  T
   3    -25.6884573 -0.376967E-06  0.599E-03   12.70       3.4  T
   4    -25.6884573 -0.386269E-07  0.166E-03   12.70      12.3  T
   5    -25.6884573 -0.509320E-08  0.680E-04   12.70      30.0  T
   6    -25.6884573 -0.143044E-08  0.138E-04   12.70     147.9  T
     SCC iter.                  ...        0 min,  0.003 sec
     gradient                   ...        0 min,  0.001 sec
 * total energy  :   -25.3164302 Eh     change       -0.7598194E-03 Eh
   gradient norm :     0.0057276 Eh/α   predicted    -0.6094826E-03 ( -19.79%)
   displ. norm   :     0.1253867 α      lambda       -0.3101090E-03
   maximum displ.:     0.0839481 α      in ANC's #8, #7, #11, ...

........................................................................
.............................. CYCLE    3 ..............................
........................................................................

 iter      E             dE          RMSdq      gap      omega  full diag
   1    -25.6924750 -0.256925E+02  0.412E-02   12.76       0.0  T
   2    -25.6924763 -0.132214E-05  0.236E-02   12.76       1.0  T
   3    -25.6924764 -0.108073E-06  0.337E-03   12.76       6.1  T
   4    -25.6924764 -0.326551E-08  0.868E-04   12.76      23.5  T
   5    -25.6924764 -0.115072E-08  0.212E-04   12.76      96.2  T
     SCC iter.                  ...        0 min,  0.002 sec
     gradient                   ...        0 min,  0.001 sec
 * total energy  :   -25.3166273 Eh     change       -0.1971263E-03 Eh
   gradient norm :     0.0017512 Eh/α   predicted    -0.1574918E-03 ( -20.11%)
   displ. norm   :     0.1449957 α      lambda       -0.9653833E-04
   maximum displ.:     0.0854123 α      in ANC's #7, #8, #1, ...

........................................................................
.............................. CYCLE    4 ..............................
........................................................................

 iter      E             dE          RMSdq      gap      omega  full diag
   1    -25.6929717 -0.256930E+02  0.322E-02   12.75       0.0  T
   2    -25.6929721 -0.318431E-06  0.191E-02   12.75       1.1  T
   3    -25.6929721 -0.559870E-07  0.159E-03   12.75      12.9  T
   4    -25.6929721 -0.507713E-08  0.665E-04   12.75      30.7  T
   5    -25.6929721 -0.926271E-09  0.159E-04   12.75     128.2  T
     SCC iter.                  ...        0 min,  0.002 sec
     gradient                   ...        0 min,  0.002 sec
 * total energy  :   -25.3167051 Eh     change       -0.7784475E-04 Eh
   gradient norm :     0.0024073 Eh/α   predicted    -0.4873564E-04 ( -37.39%)
   displ. norm   :     0.0364966 α      lambda       -0.2287864E-04
   maximum displ.:     0.0289137 α      in ANC's #1, #7, #5, ...

........................................................................
.............................. CYCLE    5 ..............................
........................................................................

 iter      E             dE          RMSdq      gap      omega  full diag
   1    -25.6922271 -0.256922E+02  0.110E-02   12.74       0.0  T
   2    -25.6922272 -0.494311E-07  0.635E-03   12.74       3.2  T
   3    -25.6922272 -0.315886E-08  0.599E-04   12.74      34.1  T
   4    -25.6922272 -0.133197E-08  0.188E-04   12.74     108.8  T
     SCC iter.                  ...        0 min,  0.002 sec
     gradient                   ...        0 min,  0.001 sec
 * total energy  :   -25.3167221 Eh     change       -0.1696931E-04 Eh
   gradient norm :     0.0011046 Eh/α   predicted    -0.1145842E-04 ( -32.48%)
   displ. norm   :     0.0581993 α      lambda       -0.1221749E-04
   maximum displ.:     0.0513705 α      in ANC's #1, #7, #5, ...

........................................................................
.............................. CYCLE    6 ..............................
........................................................................

 iter      E             dE          RMSdq      gap      omega  full diag
   1    -25.6914003 -0.256914E+02  0.141E-02   12.73       0.0  T
   2    -25.6914004 -0.888983E-07  0.817E-03   12.73       2.5  T
   3    -25.6914004 -0.471506E-08  0.782E-04   12.73      26.1  T
   4    -25.6914004 -0.239566E-08  0.234E-04   12.73      87.1  T
     SCC iter.                  ...        0 min,  0.002 sec
     gradient                   ...        0 min,  0.002 sec
 * total energy  :   -25.3167320 Eh     change       -0.9915108E-05 Eh
   gradient norm :     0.0008508 Eh/α   predicted    -0.6118492E-05 ( -38.29%)
   displ. norm   :     0.0230448 α      lambda       -0.3658394E-05
   maximum displ.:     0.0217261 α      in ANC's #1, #4, #7, ...

........................................................................
.............................. CYCLE    7 ..............................
........................................................................

 iter      E             dE          RMSdq      gap      omega  full diag
   1    -25.6916038 -0.256916E+02  0.492E-03   12.73       0.0  T
   2    -25.6916038 -0.360678E-08  0.289E-03   12.73       7.1  T
   3    -25.6916038 -0.316582E-09  0.206E-04   12.73      99.2  T
   4    -25.6916038 -0.369415E-09  0.759E-05   12.73     269.0  T
     SCC iter.                  ...        0 min,  0.002 sec
     gradient                   ...        0 min,  0.001 sec
 * total energy  :   -25.3167369 Eh     change       -0.4903801E-05 Eh
   gradient norm :     0.0006743 Eh/α   predicted    -0.1830512E-05 ( -62.67%)
   displ. norm   :     0.0360804 α      lambda       -0.5539471E-05
   maximum displ.:     0.0308095 α      in ANC's #1, #7, #4, ...

........................................................................
.............................. CYCLE    8 ..............................
........................................................................

 iter      E             dE          RMSdq      gap      omega  full diag
   1    -25.6919927 -0.256920E+02  0.855E-03   12.74       0.0  T
   2    -25.6919927 -0.132415E-07  0.504E-03   12.74       4.1  T
   3    -25.6919927 -0.146464E-08  0.298E-04   12.74      68.4  T
   4    -25.6919927 -0.336854E-09  0.125E-04   12.74     162.9  T
     SCC iter.                  ...        0 min,  0.001 sec
     gradient                   ...        0 min,  0.003 sec
 * total energy  :   -25.3167432 Eh     change       -0.6294381E-05 Eh
   gradient norm :     0.0003057 Eh/α   predicted    -0.2772501E-05 ( -55.95%)
   displ. norm   :     0.0370368 α      lambda       -0.3748765E-05
   maximum displ.:     0.0333157 α      in ANC's #1, #4, #3, ...

........................................................................
.............................. CYCLE    9 ..............................
........................................................................

 iter      E             dE          RMSdq      gap      omega  full diag
   1    -25.6920604 -0.256921E+02  0.764E-03   12.74       0.0  T
   2    -25.6920604 -0.542956E-08  0.454E-03   12.74       4.5  T
   3    -25.6920604 -0.902734E-09  0.231E-04   12.74      88.5  T
   4    -25.6920604 -0.319698E-09  0.107E-04   12.74     190.9  T
     SCC iter.                  ...        0 min,  0.002 sec
     gradient                   ...        0 min,  0.002 sec
 * total energy  :   -25.3167479 Eh     change       -0.4713339E-05 Eh
   gradient norm :     0.0003863 Eh/α   predicted    -0.1876613E-05 ( -60.19%)
   displ. norm   :     0.0294890 α      lambda       -0.2628765E-05
   maximum displ.:     0.0269725 α      in ANC's #1, #3, #2, ...

........................................................................
.............................. CYCLE   10 ..............................
........................................................................

 iter      E             dE          RMSdq      gap      omega  full diag
   1    -25.6920388 -0.256920E+02  0.573E-03   12.74       0.0  T
   2    -25.6920388 -0.167491E-08  0.341E-03   12.74       6.0  T
   3    -25.6920388 -0.511950E-09  0.147E-04   12.74     139.0  T
   4    -25.6920388 -0.803198E-10  0.745E-05   12.74     274.1  T
     SCC iter.                  ...        0 min,  0.002 sec
     gradient                   ...        0 min,  0.001 sec
 * total energy  :   -25.3167516 Eh     change       -0.3696772E-05 Eh
   gradient norm :     0.0003296 Eh/α   predicted    -0.1316373E-05 ( -64.39%)
   displ. norm   :     0.0297259 α      lambda       -0.2629527E-05
   maximum displ.:     0.0262461 α      in ANC's #1, #2, #3, ...

........................................................................
.............................. CYCLE   11 ..............................
........................................................................

 iter      E             dE          RMSdq      gap      omega  full diag
   1    -25.6919437 -0.256919E+02  0.586E-03   12.74       0.0  T
   2    -25.6919437 -0.219893E-08  0.349E-03   12.74       5.9  T
   3    -25.6919437 -0.643112E-09  0.147E-04   12.74     139.3  T
   4    -25.6919437 -0.313776E-10  0.718E-05   12.74     284.4  T
     SCC iter.                  ...        0 min,  0.002 sec
     gradient                   ...        0 min,  0.001 sec
 * total energy  :   -25.3167552 Eh     change       -0.3619248E-05 Eh
   gradient norm :     0.0001904 Eh/α   predicted    -0.1317446E-05 ( -63.60%)
   displ. norm   :     0.0337290 α      lambda       -0.2580518E-05
   maximum displ.:     0.0285740 α      in ANC's #1, #2, #3, ...

........................................................................
.............................. CYCLE   12 ..............................
........................................................................

 iter      E             dE          RMSdq      gap      omega  full diag
   1    -25.6918533 -0.256919E+02  0.678E-03   12.73       0.0  T
   2    -25.6918533 -0.304550E-08  0.404E-03   12.73       5.0  T
   3    -25.6918533 -0.627910E-09  0.179E-04   12.73     114.3  T
   4    -25.6918533 -0.189683E-09  0.903E-05   12.73     226.0  T
     SCC iter.                  ...        0 min,  0.001 sec
     gradient                   ...        0 min,  0.003 sec
 * total energy  :   -25.3167587 Eh     change       -0.3461983E-05 Eh
   gradient norm :     0.0001667 Eh/α   predicted    -0.1292488E-05 ( -62.67%)
   displ. norm   :     0.0361840 α      lambda       -0.2246969E-05
   maximum displ.:     0.0298639 α      in ANC's #1, #2, #3, ...

........................................................................
.............................. CYCLE   13 ..............................
........................................................................

 iter      E             dE          RMSdq      gap      omega  full diag
   1    -25.6918145 -0.256918E+02  0.697E-03   12.73       0.0  T
   2    -25.6918145 -0.207995E-08  0.416E-03   12.73       4.9  T
   3    -25.6918145 -0.788450E-09  0.165E-04   12.73     124.0  T
   4    -25.6918145 -0.473399E-10  0.812E-05   12.73     251.5  T
     SCC iter.                  ...        0 min,  0.002 sec
     gradient                   ...        0 min,  0.001 sec
 * total energy  :   -25.3167618 Eh     change       -0.3045967E-05 Eh
   gradient norm :     0.0002157 Eh/α   predicted    -0.1126176E-05 ( -63.03%)
   displ. norm   :     0.0373491 α      lambda       -0.1955549E-05
   maximum displ.:     0.0304203 α      in ANC's #1, #2, #3, ...

........................................................................
.............................. CYCLE   14 ..............................
........................................................................

 iter      E             dE          RMSdq      gap      omega  full diag
   1    -25.6918308 -0.256918E+02  0.753E-03   12.73       0.0  T
   2    -25.6918308 -0.231949E-08  0.450E-03   12.73       4.5  T
   3    -25.6918308 -0.832298E-09  0.179E-04   12.73     114.2  T
   4    -25.6918308 -0.111420E-09  0.943E-05   12.73     216.4  T
     SCC iter.                  ...        0 min,  0.001 sec
     gradient                   ...        0 min,  0.002 sec
 * total energy  :   -25.3167644 Eh     change       -0.2610376E-05 Eh
   gradient norm :     0.0002026 Eh/α   predicted    -0.9799767E-06 ( -62.46%)
   displ. norm   :     0.0356359 α      lambda       -0.1583440E-05
   maximum displ.:     0.0292230 α      in ANC's #1, #2, #3, ...

........................................................................
.............................. CYCLE   15 ..............................
........................................................................

 iter      E             dE          RMSdq      gap      omega  full diag
   1    -25.6918541 -0.256919E+02  0.691E-03   12.73       0.0  T
   2    -25.6918541 -0.213980E-08  0.413E-03   12.73       4.9  T
   3    -25.6918541 -0.752351E-09  0.163E-04   12.73     125.0  T
   4    -25.6918541 -0.484022E-10  0.825E-05   12.73     247.3  T
     SCC iter.                  ...        0 min,  0.001 sec
     gradient                   ...        0 min,  0.002 sec
 * total energy  :   -25.3167664 Eh     change       -0.2068977E-05 Eh
   gradient norm :     0.0001587 Eh/α   predicted    -0.7936188E-06 ( -61.64%)
   displ. norm   :     0.0297061 α      lambda       -0.1089020E-05
   maximum displ.:     0.0249562 α      in ANC's #1, #3, #2, ...

........................................................................
.............................. CYCLE   16 ..............................
........................................................................

 iter      E             dE          RMSdq      gap      omega  full diag
   1    -25.6918964 -0.256919E+02  0.595E-03   12.73       0.0  T
   2    -25.6918964 -0.176018E-08  0.355E-03   12.73       5.8  T
   3    -25.6918964 -0.507502E-09  0.149E-04   12.73     137.1  T
   4    -25.6918964 -0.102904E-09  0.779E-05   12.73     262.0  T
     SCC iter.                  ...        0 min,  0.001 sec
     gradient                   ...        0 min,  0.003 sec
 * total energy  :   -25.3167679 Eh     change       -0.1423121E-05 Eh
   gradient norm :     0.0000850 Eh/α   predicted    -0.5455611E-06 ( -61.66%)
   displ. norm   :     0.0217650 α      lambda       -0.6578290E-06
   maximum displ.:     0.0189838 α      in ANC's #1, #3, #2, ...

........................................................................
.............................. CYCLE   17 ..............................
........................................................................

 iter      E             dE          RMSdq      gap      omega  full diag
   1    -25.6919267 -0.256919E+02  0.434E-03   12.73       0.0  T
   2    -25.6919267 -0.847209E-09  0.259E-03   12.73       7.9  T
   3    -25.6919267 -0.311616E-09  0.103E-04   12.73     198.6  T
   4    -25.6919267 -0.160547E-10  0.497E-05   12.73     410.4  T
     SCC iter.                  ...        0 min,  0.002 sec
     gradient                   ...        0 min,  0.001 sec
 * total energy  :   -25.3167687 Eh     change       -0.8763135E-06 Eh
   gradient norm :     0.0000670 Eh/α   predicted    -0.3298704E-06 ( -62.36%)
   displ. norm   :     0.0143840 α      lambda       -0.3936825E-06
   maximum displ.:     0.0131742 α      in ANC's #1, #3, #4, ...

   *** GEOMETRY OPTIMIZATION CONVERGED AFTER 17 ITERATIONS ***

------------------------------------------------------------------------
 total energy gain   :        -0.0010984 Eh       -0.6892 kcal/mol
 total RMSD          :         0.1311105 a0        0.0694 Å
 total power (kW/mol):        -0.1696365 (step)  -31.6903 (real)
------------------------------------------------------------------------

 ANCopt (total)                0 d,  0 h,  0 min,  0.091 sec
 optimizer setup                ...        0 min,  0.001 sec (  1.099%)
 model hessian                  ...        0 min,  0.013 sec ( 14.286%)
 ANC generation                 ...        0 min,  0.000 sec (  0.000%)
 coordinate transformation      ...        0 min,  0.000 sec (  0.000%)
 single point calculation       ...        0 min,  0.069 sec ( 75.824%)
 optimization log               ...        0 min,  0.003 sec (  3.296%)
 hessian update                 ...        0 min,  0.000 sec (  0.000%)
 rational function              ...        0 min,  0.001 sec (  1.099%)

================
 final structure:
================
24
 xtb: 6.7.1pre (5071a88)
C            2.96986505503874       -0.44793987690196       -0.19170228409698
C            1.90999509404339        0.61543146791764        0.07282882543298
C            0.51130578070056        0.04055745179677        0.32228183026153
C           -0.08008832191965       -0.59974805484374       -0.93472991363783
C           -1.47795424216397       -1.15021618012786       -0.66599211069100
C           -2.40477659750549       -0.04669339898755       -0.16794105589825
C           -1.82844504693438        0.59232384223359        1.09083189930638
C           -0.43077203596416        1.14019825463613        0.81928006480334
H            3.00021681681905       -1.16693620328314        0.62430756047692
H            2.76819015914710       -0.98401328515576       -1.11533615675619
H            3.95127273084694        0.01339072690492       -0.27754975776499
H            1.86853701525407        1.30474313103979       -0.77397353594604
H            2.20796330538129        1.19321583801028        0.95166372338414
H            0.58689841034654       -0.72760825146810        1.10098845809870
H            0.56381624734858       -1.40953823468225       -1.28129560340026
H           -0.13265049499785        0.15075277877568       -1.72751819430407
H           -1.41719075414752       -1.93839239881376        0.08852167248910
H           -1.88201363680092       -1.59316696221048       -1.57915728710548
H           -3.39611300756685       -0.45548662040823        0.03960751229774
H           -2.51198981048974        0.71462334327975       -0.94426583841773
H           -1.77595807259930       -0.15658246787294        1.88481164622461
H           -2.48153663485630        1.39776958103373        1.43417604765716
H           -0.49137231463159        1.92716748900771        0.06334816642909
H           -0.02719964434859        1.58614903011955        1.73151333115729
 
 Bond Distances (Angstroems)
 ---------------------------
C1-C2=1.5245         C1-H9=1.0880         C1-H10=1.0868        C1-H11=1.0878        C2-C1=1.5245         C2-C3=1.5327         
C2-H12=1.0927        C2-H13=1.0931        C3-C2=1.5327         C3-C4=1.5296         C3-C8=1.5309         C3-H14=1.0964        
C4-C3=1.5296         C4-C5=1.5262         C4-H15=1.0911        C4-H16=1.0929        C5-C4=1.5262         C5-C6=1.5247         
C5-H17=1.0928        C5-H18=1.0924        C6-C5=1.5247         C6-C7=1.5248         C6-H19=1.0922        C6-H20=1.0926        
C7-C6=1.5248         C7-C8=1.5256         C7-H21=1.0927        C7-H22=1.0923        C8-C3=1.5309         C8-C7=1.5256         
C8-H23=1.0929        C8-H24=1.0927        H9-C1=1.0880         H10-C1=1.0868        H11-C1=1.0878        H12-C2=1.0927        
H13-C2=1.0931        H14-C3=1.0964        H15-C4=1.0911        H16-C4=1.0929        H17-C5=1.0928        H18-C5=1.0924        
H19-C6=1.0922        H20-C6=1.0926        H21-C7=1.0927        H22-C7=1.0923        H23-C8=1.0929        H24-C8=1.0927        
 C  H  Rav=1.0918 sigma=0.0023  Rmin=1.0868  Rmax=1.0964    16
 C  C  Rav=1.5274 sigma=0.0030  Rmin=1.5245  Rmax=1.5327     8
 
 selected bond angles (degree)
 --------------------
H9-C1-C2=110.50                H10-C1-C2=111.25               H10-C1-H9=108.46               H11-C1-C2=110.19               
H11-C1-H9=108.32               H11-C1-H10=108.03              C3-C2-C1=113.65                H12-C2-C1=109.39               
H12-C2-C3=109.16               H13-C2-C1=108.58               H13-C2-C3=108.43               H13-C2-H12=107.45              
C4-C3-C2=112.09                C8-C3-C2=110.18                C8-C3-C4=109.24                H14-C3-C2=108.39               
H14-C3-C4=108.48               H14-C3-C8=108.37               C5-C4-C3=111.12                H15-C4-C3=110.09               
H15-C4-C5=109.19               H16-C4-C3=109.10               H16-C4-C5=109.35               H16-C4-H15=107.92              
C6-C5-C4=110.68                H17-C5-C4=109.32               H17-C5-C6=109.29               H18-C5-C4=109.75               
H18-C5-C6=109.98               H18-C5-H17=107.77              C7-C6-C5=110.07                H19-C6-C5=110.05               
H19-C6-C7=110.06               H20-C6-C5=109.38               H20-C6-C7=109.37               H20-C6-H19=107.86              
C8-C7-C6=110.48                H21-C7-C6=109.32               H21-C7-C8=109.36               H22-C7-C6=110.03               
H22-C7-C8=109.81               H22-C7-H21=107.80              C7-C8-C3=111.32                H23-C8-C3=109.07               
H23-C8-C7=109.32               H24-C8-C3=109.69               H24-C8-C7=109.65               H24-C8-H23=107.70              
 
 selected dihedral angles (degree)
 ---------------------------------
C3-C2-C1-H9=304.41            C3-C2-C1-H10= 64.95           C3-C2-C1-H11=184.75           H12-C2-C1-H9=182.15           
H12-C2-C1-H10=302.69          H12-C2-C1-H11= 62.49          H13-C2-C1-H9= 65.17           H13-C2-C1-H10=185.70          
H13-C2-C1-H11=305.50          C4-C3-C2-C1=291.90            C4-C3-C2-H12= 54.29           C4-C3-C2-H13=171.07           
C8-C3-C2-C1=170.03            C8-C3-C2-H12=292.42           C8-C3-C2-H13= 49.19           H14-C3-C2-C1= 51.60           
H14-C3-C2-H12=173.99          H14-C3-C2-H13=290.77          C5-C4-C3-C2=180.65            C5-C4-C3-C8=303.06            
C5-C4-C3-H14= 61.00           H15-C4-C3-C2= 59.54           H15-C4-C3-C8=181.96           H15-C4-C3-H14=299.90          
H16-C4-C3-C2=301.29           H16-C4-C3-C8= 63.71           H16-C4-C3-H14=181.65          C6-C5-C4-C3= 57.90            
C6-C5-C4-H15=179.54           C6-C5-C4-H16=297.41           H17-C5-C4-C3=297.48           H17-C5-C4-H15= 59.11          
H17-C5-C4-H16=176.98          H18-C5-C4-C3=179.48           H18-C5-C4-H15=301.11          H18-C5-C4-H16= 58.98          
C7-C6-C5-C4=302.58            C7-C6-C5-H17= 63.03           C7-C6-C5-H18=181.15           H19-C6-C5-C4=181.10           
H19-C6-C5-H17=301.55          H19-C6-C5-H18= 59.67          H20-C6-C5-C4= 62.77           H20-C6-C5-H17=183.22          
H20-C6-C5-H18=301.34          C8-C7-C6-C5= 57.31            C8-C7-C6-H19=178.79           C8-C7-C6-H20=297.12           
H21-C7-C6-C5=296.93           H21-C7-C6-H19= 58.40          H21-C7-C6-H20=176.73          H22-C7-C6-C5=178.73           
H22-C7-C6-H19=300.20          H22-C7-C6-H20= 58.53          C7-C8-C3-C2=180.62            C7-C8-C3-C4= 57.07            
C7-C8-C3-H14=299.06           H23-C8-C3-C2= 59.91           H23-C8-C3-C4=296.35           H23-C8-C3-H14=178.34          
H24-C8-C3-C2=302.17           H24-C8-C3-C4=178.62           H24-C8-C3-H14= 60.60          C3-C8-C7-C6=302.09            
C3-C8-C7-H21= 62.45           C3-C8-C7-H22=180.55           H23-C8-C7-C6= 62.66           H23-C8-C7-H21=183.02          
H23-C8-C7-H22=301.12          H24-C8-C7-C6=180.53           H24-C8-C7-H21=300.89          H24-C8-C7-H22= 58.98          
           -------------------------------------------------
          |                Final Singlepoint                |
           -------------------------------------------------

          ...................................................
          :                      SETUP                      :
          :.................................................:
          :  # basis functions                  48          :
          :  # atomic orbitals                  48          :
          :  # shells                           32          :
          :  # electrons                        48          :
          :  max. iterations                   250          :
          :  Hamiltonian                  GFN2-xTB          :
          :  restarted?                      false          :
          :  GBSA solvation                  false          :
          :  PC potential                    false          :
          :  electronic temp.          300.0000000     K    :
          :  accuracy                    1.0000000          :
          :  -> integral cutoff          0.2500000E+02      :
          :  -> integral neglect         0.1000000E-07      :
          :  -> SCF convergence          0.1000000E-05 Eh   :
          :  -> wf. convergence          0.1000000E-03 e    :
          :  Broyden damping             0.4000000          :
          :  net charge                          0          :
          :  unpaired electrons                  0          :
          ...................................................

 iter      E             dE          RMSdq      gap      omega  full diag
   1    -25.6919267 -0.256919E+02  0.947E-06   12.73       0.0  T
   2    -25.6919267 -0.195399E-12  0.538E-06   12.73    3792.4  T
   3    -25.6919267  0.000000E+00  0.230E-06   12.73    8873.4  T

   *** convergence criteria satisfied after 3 iterations ***

         #    Occupation            Energy/Eh            Energy/eV
      -------------------------------------------------------------
         1        2.0000           -0.6301529             -17.1473
       ...           ...                  ...                  ...
        18        2.0000           -0.4441603             -12.0862
        19        2.0000           -0.4331862             -11.7876
        20        2.0000           -0.4320638             -11.7571
        21        2.0000           -0.4244016             -11.5486
        22        2.0000           -0.4150263             -11.2934
        23        2.0000           -0.4065942             -11.0640
        24        2.0000           -0.4036600             -10.9841 (HOMO)
        25                          0.0643141               1.7501 (LUMO)
        26                          0.0813120               2.2126
        27                          0.0938441               2.5536
        28                          0.1073806               2.9220
        29                          0.1146571               3.1200
       ...                                ...                  ...
        48                          0.3197319               8.7003
      -------------------------------------------------------------
                  HL-Gap            0.4679741 Eh           12.7342 eV
             Fermi-level           -0.1696730 Eh           -4.6170 eV

 SCC (total)                   0 d,  0 h,  0 min,  0.003 sec
 SCC setup                      ...        0 min,  0.000 sec (  0.000%)
 Dispersion                     ...        0 min,  0.000 sec (  0.000%)
 classical contributions        ...        0 min,  0.000 sec (  0.000%)
 integral evaluation            ...        0 min,  0.000 sec (  0.000%)
 iterations                     ...        0 min,  0.002 sec ( 66.669%)
 molecular gradient             ...        0 min,  0.001 sec ( 33.331%)
 printout                       ...        0 min,  0.000 sec (  0.000%)

         :::::::::::::::::::::::::::::::::::::::::::::::::::::
         ::                     SUMMARY                     ::
         :::::::::::::::::::::::::::::::::::::::::::::::::::::
         :: total energy             -25.316768729102 Eh    ::
         :: gradient norm              0.000067111134 Eh/a0 ::
         :: HOMO-LUMO gap             12.734223651647 eV    ::
         ::.................................................::
         :: SCC energy               -25.691841562178 Eh    ::
         :: -> isotropic ES            0.003867132317 Eh    ::
         :: -> anisotropic ES          0.007353649503 Eh    ::
         :: -> anisotropic XC          0.014553837630 Eh    ::
         :: -> dispersion             -0.016793733918 Eh    ::
         :: repulsion energy           0.375072833076 Eh    ::
         :: add. restraining           0.000000000000 Eh    ::
         :: total charge               0.000000000000 e     ::
         :::::::::::::::::::::::::::::::::::::::::::::::::::::

           -------------------------------------------------
          |                Property Printout                |
           -------------------------------------------------

    * Orbital Energies and Occupations

         #    Occupation            Energy/Eh            Energy/eV
      -------------------------------------------------------------
         1        2.0000           -0.6301529             -17.1473
       ...           ...                  ...                  ...
        12        2.0000           -0.4907676             -13.3545
        13        2.0000           -0.4849182             -13.1953
        14        2.0000           -0.4794023             -13.0452
        15        2.0000           -0.4681469             -12.7389
        16        2.0000           -0.4591803             -12.4949
        17        2.0000           -0.4477059             -12.1827
        18        2.0000           -0.4441603             -12.0862
        19        2.0000           -0.4331862             -11.7876
        20        2.0000           -0.4320638             -11.7571
        21        2.0000           -0.4244016             -11.5486
        22        2.0000           -0.4150263             -11.2934
        23        2.0000           -0.4065942             -11.0640
        24        2.0000           -0.4036600             -10.9841 (HOMO)
        25                          0.0643141               1.7501 (LUMO)
        26                          0.0813120               2.2126
        27                          0.0938441               2.5536
        28                          0.1073806               2.9220
        29                          0.1146571               3.1200
        30                          0.1175848               3.1996
        31                          0.1322856               3.5997
        32                          0.1508052               4.1036
        33                          0.1600736               4.3558
        34                          0.1693754               4.6089
        35                          0.1789725               4.8701
       ...                                ...                  ...
        48                          0.3197319               8.7003
      -------------------------------------------------------------
                  HL-Gap            0.4679741 Eh           12.7342 eV
             Fermi-level           -0.1696730 Eh           -4.6170 eV

     #   Z          covCN         q      C6AA      α(0)
     1   6 C        3.751    -0.101    22.493     6.764
     2   6 C        3.803    -0.057    21.597     6.616
     3   6 C        3.854    -0.019    20.882     6.499
     4   6 C        3.808    -0.058    21.617     6.618
     5   6 C        3.805    -0.054    21.545     6.608
     6   6 C        3.806    -0.055    21.560     6.610
     7   6 C        3.805    -0.054    21.542     6.607
     8   6 C        3.809    -0.059    21.621     6.619
     9   1 H        0.925     0.033     2.548     2.496
    10   1 H        0.925     0.033     2.539     2.492
    11   1 H        0.925     0.032     2.560     2.502
    12   1 H        0.924     0.028     2.611     2.527
    13   1 H        0.924     0.028     2.613     2.528
    14   1 H        0.924     0.029     2.606     2.524
    15   1 H        0.924     0.028     2.608     2.526
    16   1 H        0.924     0.030     2.589     2.516
    17   1 H        0.924     0.029     2.603     2.523
    18   1 H        0.924     0.025     2.664     2.553
    19   1 H        0.924     0.024     2.669     2.555
    20   1 H        0.924     0.030     2.581     2.513
    21   1 H        0.924     0.029     2.597     2.520
    22   1 H        0.924     0.025     2.658     2.550
    23   1 H        0.924     0.030     2.587     2.515
    24   1 H        0.924     0.024     2.674     2.557

 Mol. C6AA /au·bohr⁶  :       3958.872992
 Mol. C8AA /au·bohr⁸  :      83749.163055
 Mol. α(0) /au        :         93.337911


Wiberg/Mayer (AO) data.
largest (>0.10) Wiberg bond orders for each atom

 ---------------------------------------------------------------------------
     #   Z sym  total        # sym  WBO       # sym  WBO       # sym  WBO
 ---------------------------------------------------------------------------
     1   6 C    3.997 --     2 C    1.019     9 H    0.988    11 H    0.987
                            10 H    0.986
     2   6 C    3.997 --     1 C    1.019     3 C    0.996    12 H    0.978
                            13 H    0.977
     3   6 C    3.996 --     4 C    0.998     8 C    0.997     2 C    0.996
                            14 H    0.967
     4   6 C    3.998 --     5 C    1.008     3 C    0.998    16 H    0.976
                            15 H    0.974
     5   6 C    3.998 --     6 C    1.009     4 C    1.008    18 H    0.978
                            17 H    0.978
     6   6 C    3.998 --     5 C    1.009     7 C    1.009    19 H    0.978
                            20 H    0.978
     7   6 C    3.998 --     6 C    1.009     8 C    1.008    21 H    0.978
                            22 H    0.978
     8   6 C    3.998 --     7 C    1.008     3 C    0.997    23 H    0.977
                            24 H    0.977
     9   1 H    0.999 --     1 C    0.988
    10   1 H    0.999 --     1 C    0.986
    11   1 H    0.999 --     1 C    0.987
    12   1 H    0.999 --     2 C    0.978
    13   1 H    0.999 --     2 C    0.977
    14   1 H    0.999 --     3 C    0.967
    15   1 H    0.999 --     4 C    0.974
    16   1 H    0.999 --     4 C    0.976
    17   1 H    0.999 --     5 C    0.978
    18   1 H    0.999 --     5 C    0.978
    19   1 H    0.999 --     6 C    0.978
    20   1 H    0.999 --     6 C    0.978
    21   1 H    0.999 --     7 C    0.978
    22   1 H    0.999 --     7 C    0.978
    23   1 H    0.999 --     8 C    0.977
    24   1 H    0.999 --     8 C    0.977
 ---------------------------------------------------------------------------

Topologies differ in total number of bonds
Writing topology from bond orders to xtbtopo.mol

molecular dipole:
                 x           y           z       tot (Debye)
 q only:        0.014      -0.008      -0.009
   full:        0.014      -0.003      -0.008       0.041
molecular quadrupole (traceless):
                xx          xy          yy          xz          yz          zz
 q only:        0.110      -0.081      -0.000      -0.051       0.043      -0.110
  q+dip:       -1.354      -0.009       0.400       0.348      -1.190       0.954
   full:       -0.629      -0.030       0.194       0.155      -0.593       0.435

           -------------------------------------------------
          |                Geometry Summary                 |
           -------------------------------------------------

      molecular mass/u    :      112.2129392
   center of mass at/Å    :       -0.0814692       0.0141111       0.0388866
  moments of inertia/u·Å² :        0.1308033E+03   0.3870433E+03   0.4759711E+03
rotational constants/cm⁻¹ :        0.1288777E+00   0.4355490E-01   0.3541735E-01

 * 24 selected distances

     #   Z          #   Z                                           value/Å
     1   6 C        2   6 C                                       1.5244868
     2   6 C        3   6 C                                       1.5326576 (max)
     3   6 C        4   6 C                                       1.5296461
     4   6 C        5   6 C                                       1.5261929
     5   6 C        6   6 C                                       1.5247352
     6   6 C        7   6 C                                       1.5247986
     3   6 C        8   6 C                                       1.5309240
     7   6 C        8   6 C                                       1.5255809
     1   6 C        9   1 H                                       1.0880024
     1   6 C       10   1 H                                       1.0868060 (min)
     1   6 C       11   1 H                                       1.0878221
     2   6 C       12   1 H                                       1.0926774
     2   6 C       13   1 H                                       1.0931472
     3   6 C       14   1 H                                       1.0964383
     4   6 C       15   1 H                                       1.0910918
     4   6 C       16   1 H                                       1.0929445
     5   6 C       17   1 H                                       1.0927970
     5   6 C       18   1 H                                       1.0924011
     6   6 C       19   1 H                                       1.0922163
     6   6 C       20   1 H                                       1.0926016
     7   6 C       21   1 H                                       1.0927120
     7   6 C       22   1 H                                       1.0923172
     8   6 C       23   1 H                                       1.0928981
     8   6 C       24   1 H                                       1.0926630

 * 2 distinct bonds (by element types)

   Z      Z             #   av. dist./Å        max./Å        min./Å
   1 H    6 C          16     1.0918460     1.0964383     1.0868060
   6 C    6 C           8     1.5273778     1.5326576     1.5244868


optimized geometry written to: xtbopt.xyz


           -------------------------------------------------
          | TOTAL ENERGY              -25.316768729102 Eh   |
          | GRADIENT NORM               0.000067111134 Eh/α |
          | HOMO-LUMO GAP              12.734223651647 eV   |
           -------------------------------------------------

------------------------------------------------------------------------
 * finished run on 2026/09/17 at 00:40:31.918     
------------------------------------------------------------------------
 total:
 * wall-time:     0 d,  0 h,  0 min,  0.195 sec
 *  cpu-time:     0 d,  0 h,  0 min,  0.672 sec
 * ratio c/w:     3.446 speedup
 SCF:
 * wall-time:     0 d,  0 h,  0 min,  0.007 sec
 *  cpu-time:     0 d,  0 h,  0 min,  0.000 sec
 * ratio c/w:     0.000 speedup
 ANC optimizer:
 * wall-time:     0 d,  0 h,  0 min,  0.100 sec
 *  cpu-time:     0 d,  0 h,  0 min,  0.375 sec
 * ratio c/w:     3.750 speedup

