 Entering Gaussian System
 *********************************************
 Gaussian 98:
 frequency output generated by the xtb code
 *********************************************
                         Standard orientation:
 --------------------------------------------------------------------
  Center     Atomic     Atomic              Coordinates (Angstroms)
  Number     Number      Type              X           Y           Z
 --------------------------------------------------------------------
    1          6             0        2.969862   -0.447956   -0.191712
    2          6             0        1.909999    0.615422    0.072821
    3          6             0        0.511307    0.040555    0.322280
    4          6             0       -0.080095   -0.599749   -0.934729
    5          6             0       -1.477963   -1.150210   -0.665985
    6          6             0       -2.404778   -0.046681   -0.167933
    7          6             0       -1.828438    0.592335    1.090837
    8          6             0       -0.430763    1.140202    0.819280
    9          1             0        3.000213   -1.166951    0.624299
   10          1             0        2.768181   -0.984030   -1.115344
   11          1             0        3.951272    0.013370   -0.277564
   12          1             0        1.868541    1.304732   -0.773982
   13          1             0        2.207973    1.193206    0.951654
   14          1             0        0.586898   -0.727609    1.100988
   15          1             0        0.563804   -1.409544   -1.281295
   16          1             0       -0.132656    0.150750   -1.727518
   17          1             0       -1.417201   -1.938385    0.088530
   18          1             0       -1.882028   -1.593160   -1.579148
   19          1             0       -3.396116   -0.455469    0.039620
   20          1             0       -2.511990    0.714635   -0.944258
   21          1             0       -1.775952   -0.156570    1.884818
   22          1             0       -2.481525    1.397785    1.434182
   23          1             0       -0.491362    1.927170    0.063347
   24          1             0       -0.027185    1.586152    1.731511
 --------------------------------------------------------------------
     1 basis functions        1 primitive gaussians
     1 alpha electrons        1 beta electrons
 
 Harmonic frequencies (cm**-1), IR intensities (km*mol⁻¹),
 Raman scattering activities (A**4/amu), Raman depolarization ratios,
 reduced masses (AMU), force constants (mDyne/A) and normal coordinates:
                      1                      2                      3
                        a                      a                      a 
 Frequencies --    69.3917               125.1375               212.8490
 Red. masses --     7.0620                 7.0597                 5.6075
 Frc consts  --     0.0000                 0.0000                 0.0000
 IR Inten    --     0.0088                 0.0321                 0.0020
 Raman Activ --     0.0000                 0.0000                 0.0000
 Depolar     --     0.0000                 0.0000                 0.0000
 Atom AN      X      Y      Z        X      Y      Z        X      Y      Z
   1   6    -0.08   0.09  -0.48     0.17   0.26  -0.01    -0.23  -0.22  -0.16
   2   6     0.00  -0.02   0.28    -0.10   0.04  -0.19     0.03   0.01  -0.03
   3   6    -0.00  -0.05   0.20     0.04  -0.19   0.09     0.02   0.12   0.13
   4   6     0.12  -0.18   0.21    -0.02  -0.28   0.15     0.07   0.24   0.05
   5   6     0.04  -0.05   0.10    -0.17   0.04  -0.00     0.23  -0.07   0.08
   6   6     0.05   0.06  -0.16     0.02   0.29  -0.20     0.08  -0.12  -0.14
   7   6    -0.10   0.12  -0.13    -0.05  -0.01  -0.02    -0.13   0.03  -0.11
   8   6    -0.03   0.01   0.02     0.07  -0.21   0.22    -0.04   0.04   0.23
   9   1    -0.06  -0.16  -0.30     0.22   0.21   0.11     0.14   0.12   0.11
  10   1    -0.02   0.24  -0.27    -0.00  -0.09   0.11    -0.31  -0.27   0.13
  11   1    -0.01   0.02  -0.01    -0.01   0.16  -0.19    -0.09  -0.09  -0.41
  12   1    -0.03   0.13   0.19    -0.10  -0.06  -0.11    -0.00  -0.02  -0.02
  13   1     0.05  -0.15   0.16    -0.04   0.11  -0.12     0.08   0.01  -0.04
  14   1    -0.02   0.01   0.08     0.07  -0.05   0.03     0.01   0.02   0.02
  15   1     0.03  -0.08   0.12    -0.04  -0.13   0.10     0.05   0.13  -0.05
  16   1     0.08  -0.08   0.03     0.06  -0.11   0.01    -0.04   0.11   0.06
  17   1    -0.03   0.01   0.06    -0.14   0.02   0.02     0.11   0.02   0.06
  18   1     0.04  -0.04   0.03    -0.04   0.02  -0.01     0.10  -0.09   0.04
  19   1    -0.01   0.05  -0.08    -0.04   0.17  -0.14     0.02  -0.04  -0.06
  20   1     0.07  -0.00  -0.07     0.13   0.11  -0.05     0.04  -0.06  -0.07
  21   1    -0.08   0.05  -0.02    -0.09  -0.04  -0.04    -0.09   0.03  -0.01
  22   1    -0.03   0.06  -0.08     0.02   0.02   0.00    -0.06   0.02  -0.10
  23   1     0.03  -0.01  -0.01     0.07  -0.02   0.11     0.03   0.06   0.11
  24   1    -0.03   0.02   0.01     0.02  -0.13   0.10    -0.06  -0.05   0.12
                      4                      5                      6
                        a                      a                      a 
 Frequencies --   227.0873               232.5321               325.3478
 Red. masses --     7.0693                 4.8292                 6.3643
 Frc consts  --     0.0000                 0.0000                 0.0000
 IR Inten    --     0.1889                 0.0800                 0.0526
 Raman Activ --     0.0000                 0.0000                 0.0000
 Depolar     --     0.0000                 0.0000                 0.0000
 Atom AN      X      Y      Z        X      Y      Z        X      Y      Z
   1   6    -0.30  -0.18  -0.00    -0.04  -0.03   0.08     0.12  -0.03  -0.06
   2   6    -0.03   0.16  -0.25    -0.03   0.06  -0.25     0.02  -0.06  -0.22
   3   6     0.02   0.23   0.10     0.02   0.01  -0.10     0.07  -0.04   0.25
   4   6     0.18  -0.14   0.21    -0.09   0.10  -0.09     0.09   0.04   0.22
   5   6     0.05   0.06  -0.13     0.08  -0.13   0.23    -0.02   0.09  -0.29
   6   6     0.13   0.10  -0.08     0.08   0.02  -0.13    -0.19  -0.23   0.12
   7   6     0.07  -0.28   0.13    -0.10   0.08  -0.08    -0.12   0.21  -0.10
   8   6    -0.11   0.13   0.04     0.07  -0.12   0.30     0.04  -0.00   0.13
   9   1    -0.25  -0.08  -0.02    -0.28  -0.15  -0.09    -0.03  -0.04  -0.04
  10   1    -0.05  -0.00  -0.04     0.20   0.16  -0.12     0.12   0.03  -0.06
  11   1    -0.03  -0.16   0.12     0.05  -0.07   0.36     0.04   0.00   0.09
  12   1    -0.02  -0.04  -0.14    -0.01  -0.04  -0.12    -0.06  -0.12  -0.14
  13   1     0.04   0.12  -0.14    -0.02   0.08  -0.11     0.05   0.10  -0.15
  14   1     0.05   0.12   0.07     0.06  -0.03  -0.07     0.05   0.01   0.09
  15   1     0.05  -0.09   0.19     0.01   0.09  -0.09     0.02   0.01   0.07
  16   1     0.14  -0.11  -0.02    -0.12   0.06   0.01     0.10   0.04   0.08
  17   1    -0.07  -0.03  -0.07     0.08   0.06   0.16    -0.06  -0.11  -0.22
  18   1     0.05   0.08  -0.08     0.01  -0.16   0.13     0.04   0.19  -0.18
  19   1     0.01   0.06  -0.10    -0.01   0.05  -0.08     0.02  -0.19   0.16
  20   1     0.11   0.08   0.02     0.10  -0.03  -0.08    -0.25  -0.10   0.03
  21   1     0.11  -0.17  -0.05    -0.13   0.04   0.00    -0.11   0.16   0.07
  22   1    -0.03  -0.17   0.16    -0.01   0.06  -0.09    -0.02   0.13  -0.16
  23   1    -0.11   0.02  -0.00     0.09   0.08   0.19     0.08   0.01   0.04
  24   1    -0.04   0.08  -0.01     0.01  -0.18   0.16    -0.04  -0.02   0.07
                      7                      8                      9
                        a                      a                      a 
 Frequencies --   359.7551               422.3054               439.0470
 Red. masses --     8.9488                 8.4844                 8.4052
 Frc consts  --     0.0000                 0.0000                 0.0000
 IR Inten    --     0.0987                 0.3994                 0.3492
 Raman Activ --     0.0000                 0.0000                 0.0000
 Depolar     --     0.0000                 0.0000                 0.0000
 Atom AN      X      Y      Z        X      Y      Z        X      Y      Z
   1   6    -0.40   0.11   0.08    -0.07  -0.06   0.03     0.08  -0.02  -0.05
   2   6    -0.29   0.13   0.07     0.24   0.25   0.02    -0.18  -0.23  -0.12
   3   6    -0.12  -0.15  -0.12     0.24   0.02  -0.21    -0.12  -0.18   0.10
   4   6     0.13  -0.20  -0.21     0.22  -0.14  -0.12     0.23   0.10  -0.11
   5   6     0.11  -0.06  -0.18     0.05   0.28   0.12     0.30   0.19   0.07
   6   6     0.28  -0.05   0.17    -0.29   0.05   0.08     0.17   0.12   0.08
   7   6     0.14   0.26   0.09    -0.25   0.00   0.04    -0.25   0.07   0.28
   8   6     0.18  -0.04   0.07    -0.10  -0.31  -0.04    -0.26  -0.12  -0.13
   9   1    -0.12   0.05   0.04    -0.08   0.00   0.03     0.06  -0.02  -0.03
  10   1    -0.16   0.01   0.04    -0.11  -0.02   0.03     0.11  -0.01  -0.03
  11   1    -0.10  -0.01  -0.01     0.03  -0.14  -0.04    -0.02   0.09   0.03
  12   1    -0.09   0.06   0.04     0.13   0.11   0.04    -0.12  -0.14  -0.09
  13   1    -0.11   0.02   0.04     0.05   0.01   0.05    -0.03   0.03  -0.10
  14   1    -0.03  -0.06  -0.05     0.13  -0.01  -0.08    -0.06  -0.06   0.02
  15   1     0.04  -0.09   0.01    -0.03  -0.16   0.07     0.07   0.04  -0.06
  16   1     0.08  -0.09  -0.09     0.16  -0.13  -0.13     0.08   0.07   0.01
  17   1     0.03  -0.08  -0.11     0.04   0.13   0.09     0.14   0.08   0.05
  18   1    -0.04   0.07  -0.06     0.01   0.00   0.08     0.04   0.01   0.06
  19   1     0.09  -0.03   0.08    -0.03  -0.10   0.04     0.03   0.00  -0.11
  20   1     0.04  -0.02   0.04    -0.18   0.01   0.04     0.12   0.07   0.05
  21   1    -0.03   0.16   0.11    -0.15   0.02   0.04    -0.11   0.06   0.12
  22   1     0.04   0.13  -0.10     0.01   0.08  -0.01    -0.06   0.06   0.01
  23   1     0.10   0.03   0.06    -0.04  -0.06   0.02    -0.15  -0.16  -0.16
  24   1     0.12  -0.09   0.03    -0.02  -0.11   0.00    -0.02   0.13  -0.14
                     10                     11                     12
                        a                      a                      a 
 Frequencies --   456.8637               549.4418               799.8036
 Red. masses --     7.9984                 5.7972                 4.3676
 Frc consts  --     0.0000                 0.0000                 0.0000
 IR Inten    --     0.2850                 1.3749                 3.9767
 Raman Activ --     0.0000                 0.0000                 0.0000
 Depolar     --     0.0000                 0.0000                 0.0000
 Atom AN      X      Y      Z        X      Y      Z        X      Y      Z
   1   6     0.28  -0.09  -0.05    -0.05   0.03  -0.00     0.07   0.00   0.06
   2   6     0.09  -0.17  -0.01    -0.26  -0.21  -0.01     0.18   0.11   0.27
   3   6    -0.22   0.30  -0.24    -0.16  -0.04   0.03     0.01  -0.08   0.15
   4   6     0.03  -0.18  -0.16     0.17   0.01  -0.07    -0.01  -0.09  -0.28
   5   6     0.00  -0.08  -0.09     0.16   0.26   0.10    -0.10  -0.10  -0.12
   6   6     0.10  -0.05   0.07    -0.20   0.02  -0.07    -0.01   0.02  -0.02
   7   6    -0.18   0.08   0.15     0.18  -0.06  -0.20    -0.03   0.05   0.05
   8   6    -0.19   0.26   0.25     0.11   0.14   0.05    -0.03   0.12   0.08
   9   1     0.16  -0.02  -0.01     0.05   0.00  -0.01     0.10  -0.19  -0.16
  10   1     0.12  -0.05  -0.01     0.06   0.01  -0.01    -0.27   0.23  -0.06
  11   1     0.04   0.06  -0.03    -0.06   0.11   0.02     0.06  -0.11  -0.14
  12   1     0.12   0.01   0.04    -0.11  -0.09  -0.03    -0.06  -0.32  -0.22
  13   1     0.02  -0.12   0.05    -0.07  -0.01  -0.03     0.03   0.43  -0.19
  14   1    -0.11   0.08  -0.06    -0.12  -0.02   0.01    -0.08  -0.05   0.02
  15   1     0.04  -0.11   0.16     0.02  -0.08   0.12    -0.02  -0.04  -0.08
  16   1     0.07  -0.19  -0.18     0.17  -0.06  -0.09     0.02  -0.02  -0.07
  17   1     0.00  -0.05  -0.05     0.12   0.21   0.17     0.05   0.06   0.06
  18   1    -0.05   0.01  -0.02     0.05  -0.13   0.13    -0.11  -0.15   0.06
  19   1     0.02  -0.01  -0.02     0.04  -0.16   0.15     0.01   0.00   0.03
  20   1     0.05  -0.00   0.02    -0.30  -0.04  -0.02    -0.04   0.01   0.00
  21   1    -0.05   0.04   0.06     0.18  -0.14  -0.18     0.03  -0.01  -0.01
  22   1    -0.11  -0.00  -0.01     0.03  -0.12   0.14    -0.05  -0.03   0.05
  23   1    -0.07   0.20   0.20     0.12   0.13   0.10     0.01  -0.01  -0.02
  24   1    -0.01  -0.09   0.13     0.01  -0.10   0.09    -0.02   0.08   0.01
                     13                     14                     15
                        a                      a                      a 
 Frequencies --   821.5101               838.4309               897.7574
 Red. masses --     4.4532                 5.5927                 6.1403
 Frc consts  --     0.0000                 0.0000                 0.0000
 IR Inten    --     0.2226                 2.3760                 2.8626
 Raman Activ --     0.0000                 0.0000                 0.0000
 Depolar     --     0.0000                 0.0000                 0.0000
 Atom AN      X      Y      Z        X      Y      Z        X      Y      Z
   1   6     0.01  -0.00   0.01    -0.05  -0.00   0.08     0.03  -0.04   0.05
   2   6     0.02   0.02   0.03    -0.06  -0.11   0.14    -0.00   0.01   0.03
   3   6     0.03  -0.12  -0.10    -0.02   0.17  -0.16    -0.07   0.09  -0.11
   4   6     0.18  -0.20   0.04    -0.04   0.22   0.16    -0.19  -0.10   0.14
   5   6     0.14  -0.03   0.20     0.02   0.15   0.19     0.05   0.16   0.08
   6   6    -0.02   0.10   0.10    -0.03  -0.13   0.13     0.46   0.16  -0.08
   7   6    -0.19   0.18  -0.04     0.10  -0.18  -0.14     0.10  -0.07  -0.14
   8   6    -0.15   0.05  -0.20     0.04  -0.18  -0.23    -0.17  -0.17   0.07
   9   1     0.01  -0.03  -0.02     0.16  -0.14  -0.11     0.09  -0.08  -0.06
  10   1    -0.05   0.03  -0.01    -0.10   0.16  -0.05    -0.06   0.07  -0.02
  11   1     0.01  -0.03  -0.03    -0.07   0.10  -0.07    -0.01   0.02  -0.04
  12   1     0.00  -0.04  -0.03     0.03  -0.21  -0.12     0.09  -0.04  -0.04
  13   1    -0.03   0.05  -0.01    -0.08   0.16  -0.07    -0.06   0.04  -0.00
  14   1    -0.01   0.04   0.05    -0.09   0.03  -0.05     0.03   0.03  -0.03
  15   1     0.06   0.09  -0.29    -0.06  -0.05   0.20    -0.03   0.02  -0.03
  16   1    -0.19   0.11   0.18     0.06  -0.07  -0.08    -0.19  -0.02   0.05
  17   1    -0.12  -0.20  -0.14     0.01  -0.10  -0.09    -0.17   0.04   0.03
  18   1     0.02   0.27  -0.08     0.07   0.20  -0.05    -0.01   0.12  -0.00
  19   1     0.01  -0.02  -0.02    -0.10   0.12  -0.13     0.29  -0.23   0.28
  20   1     0.00  -0.04  -0.04     0.25   0.01   0.04    -0.30  -0.03  -0.03
  21   1     0.19  -0.11  -0.18    -0.03   0.09   0.09    -0.15  -0.06  -0.07
  22   1    -0.08  -0.10   0.28     0.10   0.08  -0.18     0.01   0.00  -0.12
  23   1     0.13   0.21   0.14     0.04   0.09   0.08    -0.18  -0.09  -0.02
  24   1    -0.03  -0.27   0.08    -0.03  -0.22   0.04    -0.03   0.03  -0.03
                     16                     17                     18
                        a                      a                      a 
 Frequencies --   918.0069               932.6354               966.7275
 Red. masses --     6.7112                 3.7781                 7.0406
 Frc consts  --     0.0000                 0.0000                 0.0000
 IR Inten    --     1.8755                 6.2235                 1.2028
 Raman Activ --     0.0000                 0.0000                 0.0000
 Depolar     --     0.0000                 0.0000                 0.0000
 Atom AN      X      Y      Z        X      Y      Z        X      Y      Z
   1   6     0.16   0.02  -0.10     0.01   0.01   0.01     0.12   0.06   0.04
   2   6     0.09   0.14  -0.03     0.01   0.00  -0.01     0.02   0.02  -0.05
   3   6    -0.08  -0.20   0.20     0.01  -0.07  -0.05    -0.08  -0.18  -0.17
   4   6    -0.17   0.04  -0.10    -0.15   0.20  -0.04    -0.27   0.00   0.29
   5   6    -0.08   0.24   0.07     0.10  -0.01   0.21     0.14   0.17  -0.12
   6   6     0.30  -0.12   0.19     0.01  -0.06  -0.05     0.05  -0.16  -0.20
   7   6     0.01  -0.08  -0.26    -0.14   0.20  -0.04    -0.15   0.04   0.28
   8   6    -0.19   0.05  -0.09     0.11  -0.02   0.21     0.17   0.13  -0.11
   9   1    -0.19   0.11   0.08    -0.01  -0.01  -0.01    -0.06  -0.03  -0.03
  10   1     0.01  -0.11   0.05    -0.03   0.02   0.00    -0.18   0.08   0.02
  11   1     0.15  -0.22   0.03     0.02  -0.03  -0.01     0.12  -0.18  -0.07
  12   1    -0.14   0.10   0.05     0.00  -0.01  -0.01     0.04   0.02   0.00
  13   1     0.07  -0.01   0.01    -0.03   0.01  -0.00    -0.16   0.01   0.04
  14   1    -0.07  -0.06   0.05     0.04  -0.20  -0.19    -0.03  -0.00  -0.00
  15   1    -0.17  -0.12   0.04    -0.07  -0.09   0.24    -0.14  -0.06   0.07
  16   1     0.14  -0.01  -0.05     0.04  -0.17  -0.22    -0.02   0.01   0.08
  17   1     0.12   0.05  -0.01     0.06  -0.21  -0.17     0.00   0.14   0.07
  18   1    -0.18   0.08   0.08     0.03   0.24  -0.07     0.20  -0.10  -0.04
  19   1     0.05   0.02   0.01    -0.00  -0.00  -0.01     0.05  -0.22  -0.21
  20   1     0.15  -0.02   0.05     0.05  -0.20  -0.20    -0.03   0.06   0.05
  21   1     0.12   0.04  -0.02     0.04  -0.17  -0.22     0.07   0.05   0.11
  22   1    -0.12  -0.10  -0.12    -0.07  -0.09   0.24    -0.12  -0.05   0.05
  23   1     0.12   0.08   0.04     0.05  -0.21  -0.17     0.09   0.09   0.03
  24   1    -0.19  -0.10   0.09     0.04   0.24  -0.07     0.21  -0.09  -0.04
                     19                     20                     21
                        a                      a                      a 
 Frequencies --   967.2494               995.7181              1043.3237
 Red. masses --     7.6380                 5.0472                 4.6855
 Frc consts  --     0.0000                 0.0000                 0.0000
 IR Inten    --     1.4022                 7.1736                 0.8484
 Raman Activ --     0.0000                 0.0000                 0.0000
 Depolar     --     0.0000                 0.0000                 0.0000
 Atom AN      X      Y      Z        X      Y      Z        X      Y      Z
   1   6     0.19  -0.06  -0.06     0.22   0.04  -0.10     0.21  -0.06   0.13
   2   6     0.01   0.16   0.02    -0.04   0.05   0.07    -0.21   0.05  -0.21
   3   6    -0.30   0.07   0.03    -0.21  -0.01  -0.04    -0.07  -0.12  -0.11
   4   6     0.00   0.21   0.15     0.14  -0.09  -0.08     0.15  -0.02   0.07
   5   6     0.02  -0.28  -0.16     0.11   0.04   0.22     0.01  -0.01  -0.02
   6   6     0.00   0.18   0.02    -0.22   0.03  -0.09    -0.11   0.02   0.13
   7   6     0.09   0.20   0.06     0.15  -0.20  -0.01     0.11  -0.01  -0.16
   8   6    -0.14  -0.36  -0.18     0.11   0.11   0.12    -0.12   0.08   0.18
   9   1    -0.07   0.01   0.01    -0.20   0.08   0.05     0.08  -0.17  -0.11
  10   1    -0.02  -0.05   0.02    -0.06  -0.07   0.05    -0.23   0.16  -0.01
  11   1     0.13  -0.18  -0.03     0.20  -0.29  -0.02     0.11  -0.17  -0.14
  12   1    -0.05   0.04   0.01    -0.24   0.01   0.03     0.21   0.12   0.02
  13   1     0.00   0.06  -0.01    -0.00   0.07  -0.02    -0.41  -0.08   0.13
  14   1    -0.13  -0.01  -0.01    -0.28  -0.04  -0.02     0.23   0.01  -0.01
  15   1     0.16   0.09   0.25     0.09   0.05  -0.09     0.04   0.03  -0.05
  16   1     0.08  -0.03  -0.04    -0.17  -0.04  -0.02     0.13   0.12   0.13
  17   1     0.07  -0.02   0.01    -0.17  -0.11  -0.06     0.11  -0.00  -0.01
  18   1     0.05  -0.17  -0.01     0.12   0.18  -0.07    -0.00  -0.03   0.01
  19   1     0.02   0.08   0.15    -0.06   0.01  -0.04    -0.09   0.19   0.08
  20   1    -0.08  -0.01  -0.04    -0.04   0.01  -0.02     0.08   0.00   0.01
  21   1     0.06  -0.04  -0.07    -0.19   0.02   0.08     0.03   0.02  -0.02
  22   1     0.16   0.08   0.20     0.13   0.09  -0.16    -0.01  -0.02  -0.07
  23   1     0.01  -0.02   0.03    -0.17  -0.01   0.01    -0.04  -0.06  -0.04
  24   1     0.02  -0.23  -0.01     0.10   0.11  -0.04    -0.12   0.14   0.03
                     22                     23                     24
                        a                      a                      a 
 Frequencies --  1072.0616              1082.0826              1099.6397
 Red. masses --     1.8025                 7.9868                 6.5262
 Frc consts  --     0.0000                 0.0000                 0.0000
 IR Inten    --     0.3453                 0.8860                 0.0716
 Raman Activ --     0.0000                 0.0000                 0.0000
 Depolar     --     0.0000                 0.0000                 0.0000
 Atom AN      X      Y      Z        X      Y      Z        X      Y      Z
   1   6    -0.03   0.13   0.03    -0.14   0.38   0.04     0.08  -0.11  -0.01
   2   6     0.07  -0.14  -0.04     0.21  -0.43  -0.07    -0.12   0.13   0.02
   3   6     0.04   0.01  -0.00     0.21  -0.11  -0.14    -0.09   0.05  -0.05
   4   6    -0.03  -0.00   0.00     0.13   0.18   0.10     0.28   0.14   0.03
   5   6    -0.07   0.04   0.01    -0.08  -0.18  -0.02    -0.32  -0.02   0.09
   6   6     0.04  -0.05  -0.06     0.07   0.15   0.09     0.15  -0.04   0.04
   7   6     0.01   0.02   0.08    -0.10  -0.06  -0.04    -0.28  -0.13  -0.02
   8   6     0.04   0.00  -0.04    -0.07   0.10  -0.03     0.31   0.02  -0.09
   9   1    -0.08   0.03   0.01    -0.23   0.12   0.04     0.05  -0.05  -0.02
  10   1    -0.09   0.04   0.02    -0.20   0.09   0.05     0.03  -0.02  -0.01
  11   1     0.02  -0.03  -0.00     0.06  -0.12  -0.01     0.02  -0.02  -0.02
  12   1     0.01  -0.02   0.00    -0.02  -0.11  -0.01    -0.02   0.04   0.01
  13   1     0.00  -0.04  -0.00    -0.02  -0.09  -0.01    -0.06   0.04   0.01
  14   1    -0.08   0.24   0.24    -0.09  -0.13  -0.12    -0.03   0.02  -0.01
  15   1    -0.20  -0.12  -0.09     0.09   0.05   0.12     0.23   0.14   0.08
  16   1     0.26   0.16   0.13     0.03  -0.03  -0.05     0.11   0.08   0.04
  17   1     0.28  -0.06  -0.09    -0.11  -0.01   0.04    -0.15   0.02   0.06
  18   1    -0.16   0.04   0.05     0.07  -0.08  -0.03    -0.31   0.04   0.10
  19   1    -0.00   0.07   0.10     0.03   0.10   0.19     0.05  -0.04   0.04
  20   1     0.04  -0.27  -0.27    -0.08   0.08   0.08    -0.02  -0.03   0.00
  21   1    -0.27  -0.16  -0.11    -0.04  -0.00   0.00    -0.12  -0.09  -0.05
  22   1     0.13   0.08   0.08    -0.14  -0.08  -0.08    -0.26  -0.16  -0.09
  23   1    -0.32   0.10   0.12    -0.04   0.06   0.03     0.12  -0.01  -0.05
  24   1     0.24  -0.08  -0.07    -0.07   0.00   0.03     0.30  -0.04  -0.10
                     25                     26                     27
                        a                      a                      a 
 Frequencies --  1122.2055              1134.7442              1144.9400
 Red. masses --     6.1884                 6.1534                 7.5221
 Frc consts  --     0.0000                 0.0000                 0.0000
 IR Inten    --     0.0546                 0.7002                 0.0038
 Raman Activ --     0.0000                 0.0000                 0.0000
 Depolar     --     0.0000                 0.0000                 0.0000
 Atom AN      X      Y      Z        X      Y      Z        X      Y      Z
   1   6     0.08  -0.23  -0.10    -0.17   0.01   0.01     0.03  -0.07  -0.02
   2   6    -0.24   0.16   0.20     0.34   0.17  -0.06    -0.07   0.07   0.05
   3   6     0.33  -0.14  -0.20    -0.41  -0.25  -0.07     0.04   0.04   0.03
   4   6     0.06   0.14   0.09     0.05  -0.04   0.10    -0.25  -0.11   0.01
   5   6    -0.10  -0.06   0.00     0.04   0.07   0.03     0.32  -0.11  -0.13
   6   6     0.04  -0.01  -0.07    -0.07  -0.02   0.03    -0.05   0.28   0.28
   7   6     0.06   0.05   0.08     0.09  -0.01  -0.08    -0.27  -0.19  -0.16
   8   6    -0.17   0.13  -0.01    -0.07   0.02   0.10     0.25   0.07  -0.08
   9   1     0.06  -0.01   0.02     0.08   0.02   0.01     0.03  -0.01  -0.00
  10   1     0.16  -0.13  -0.01     0.09   0.01  -0.03     0.04  -0.02  -0.01
  11   1    -0.02   0.04   0.05    -0.11   0.17   0.04    -0.00   0.01   0.01
  12   1    -0.29  -0.01   0.02     0.28  -0.00  -0.06    -0.07   0.01   0.01
  13   1    -0.04   0.13  -0.01     0.22   0.02  -0.05    -0.00   0.03   0.00
  14   1     0.08  -0.09  -0.11    -0.17  -0.12  -0.06     0.00   0.10   0.10
  15   1    -0.20  -0.12  -0.03    -0.03  -0.01  -0.04    -0.06  -0.03   0.01
  16   1     0.10   0.01  -0.01     0.07   0.08   0.11    -0.10  -0.07  -0.03
  17   1    -0.05   0.00   0.02     0.02   0.01   0.00     0.29  -0.06  -0.08
  18   1     0.25  -0.08  -0.09     0.20  -0.02  -0.05     0.13  -0.06  -0.04
  19   1    -0.01   0.18   0.23    -0.08   0.22   0.16    -0.03   0.16   0.16
  20   1    -0.03  -0.06  -0.07     0.04  -0.01  -0.01    -0.04   0.16   0.16
  21   1     0.01   0.03   0.03     0.03   0.02   0.00    -0.26  -0.14  -0.11
  22   1    -0.15  -0.08  -0.07    -0.19  -0.12  -0.14    -0.10  -0.06  -0.08
  23   1    -0.20   0.11   0.09    -0.04  -0.05  -0.03     0.10   0.01  -0.03
  24   1     0.07  -0.04  -0.02     0.24  -0.01  -0.08     0.06   0.02  -0.02
                     28                     29                     30
                        a                      a                      a 
 Frequencies --  1179.0220              1202.6338              1236.2543
 Red. masses --     7.8403                 4.9511                 4.2829
 Frc consts  --     0.0000                 0.0000                 0.0000
 IR Inten    --     0.0080                 0.5957                 0.9339
 Raman Activ --     0.0000                 0.0000                 0.0000
 Depolar     --     0.0000                 0.0000                 0.0000
 Atom AN      X      Y      Z        X      Y      Z        X      Y      Z
   1   6    -0.04  -0.08   0.12    -0.08  -0.07  -0.09     0.00  -0.07   0.24
   2   6     0.05   0.16  -0.21     0.11   0.12   0.12     0.03   0.08  -0.25
   3   6     0.00  -0.29   0.22     0.03  -0.26  -0.26     0.10  -0.09   0.11
   4   6    -0.04   0.19  -0.17    -0.04  -0.04   0.26     0.04   0.04  -0.01
   5   6     0.03  -0.21   0.19     0.03  -0.01  -0.11    -0.04   0.09  -0.11
   6   6    -0.01   0.21  -0.19    -0.01   0.04   0.12     0.07  -0.17   0.20
   7   6     0.02  -0.21   0.20    -0.00  -0.05  -0.09    -0.04   0.11  -0.14
   8   6    -0.02   0.22  -0.19     0.00   0.21   0.02     0.03   0.02  -0.01
   9   1     0.14  -0.10  -0.05     0.02   0.05   0.04     0.16  -0.16  -0.08
  10   1    -0.02   0.08  -0.03     0.14  -0.09  -0.02    -0.10   0.17  -0.03
  11   1    -0.06   0.09  -0.04    -0.05   0.07   0.05    -0.05   0.06  -0.08
  12   1     0.12   0.14   0.02    -0.01  -0.06  -0.04    -0.25   0.20   0.10
  13   1    -0.02  -0.08   0.04    -0.07   0.12  -0.00     0.16  -0.15   0.00
  14   1    -0.01  -0.08   0.05    -0.07  -0.22  -0.21    -0.23  -0.07   0.00
  15   1    -0.03  -0.04   0.12     0.18   0.12   0.12     0.04   0.02   0.02
  16   1     0.13  -0.03  -0.12     0.05   0.07   0.14    -0.18  -0.11  -0.11
  17   1    -0.04  -0.17  -0.07     0.16   0.02  -0.01    -0.22   0.13   0.11
  18   1    -0.02   0.11  -0.02    -0.28  -0.00   0.11     0.12  -0.10  -0.03
  19   1     0.08  -0.11   0.04     0.02  -0.17  -0.20    -0.03   0.01  -0.06
  20   1    -0.18   0.02  -0.05     0.03   0.01   0.02     0.14   0.00   0.08
  21   1    -0.13   0.04   0.14    -0.15  -0.07  -0.07    -0.14  -0.14  -0.18
  22   1     0.10   0.08  -0.07     0.25   0.15   0.09     0.11   0.05   0.13
  23   1     0.06   0.17   0.07    -0.16   0.08   0.05    -0.26   0.07   0.08
  24   1    -0.11  -0.08   0.07    -0.17   0.10   0.06     0.07  -0.01  -0.02
                     31                     32                     33
                        a                      a                      a 
 Frequencies --  1245.6406              1251.8329              1273.0986
 Red. masses --     2.8140                 3.6369                 3.4194
 Frc consts  --     0.0000                 0.0000                 0.0000
 IR Inten    --     0.3837                 1.0211                 0.5793
 Raman Activ --     0.0000                 0.0000                 0.0000
 Depolar     --     0.0000                 0.0000                 0.0000
 Atom AN      X      Y      Z        X      Y      Z        X      Y      Z
   1   6     0.00   0.01   0.10     0.01  -0.00  -0.02    -0.04   0.03  -0.18
   2   6    -0.00  -0.04  -0.03    -0.01   0.00   0.02     0.01   0.00   0.11
   3   6     0.11  -0.06   0.04    -0.01  -0.02  -0.06     0.02  -0.22   0.19
   4   6    -0.13  -0.05   0.04     0.01   0.15  -0.07    -0.08   0.08  -0.18
   5   6     0.14   0.02  -0.01     0.00  -0.27   0.13     0.04   0.07  -0.01
   6   6    -0.16   0.09  -0.09    -0.00   0.07   0.06    -0.01  -0.12   0.08
   7   6     0.14   0.05  -0.05     0.00   0.11  -0.25     0.04   0.07  -0.05
   8   6    -0.15  -0.04   0.04    -0.00  -0.08   0.15    -0.03   0.06  -0.05
   9   1     0.04  -0.06  -0.03    -0.01   0.01   0.01    -0.08   0.11   0.05
  10   1    -0.06   0.07  -0.00     0.00  -0.02   0.00     0.11  -0.13   0.01
  11   1     0.00  -0.02  -0.04    -0.00   0.01   0.02     0.02  -0.03   0.05
  12   1    -0.20   0.05   0.05     0.02  -0.01  -0.01     0.35  -0.13  -0.09
  13   1     0.15  -0.06  -0.02     0.01   0.02  -0.01    -0.29   0.10   0.06
  14   1     0.19  -0.02  -0.01    -0.04   0.12   0.11     0.26   0.13   0.21
  15   1     0.24   0.14   0.16    -0.22  -0.14  -0.04     0.20   0.11   0.17
  16   1    -0.15  -0.09  -0.06     0.30   0.12   0.04    -0.14  -0.13  -0.18
  17   1     0.25  -0.06  -0.09    -0.11  -0.12  -0.01    -0.21   0.07   0.07
  18   1    -0.32   0.11   0.10     0.03   0.02  -0.02     0.10   0.00  -0.04
  19   1    -0.03  -0.02  -0.06     0.06  -0.27  -0.26    -0.04   0.04  -0.01
  20   1    -0.05   0.06   0.00    -0.08   0.36   0.36     0.08  -0.00   0.03
  21   1     0.22   0.14   0.09     0.13   0.02  -0.08    -0.11  -0.08  -0.10
  22   1    -0.22  -0.13  -0.16     0.00  -0.01   0.03     0.01   0.00   0.02
  23   1    -0.25   0.05   0.09    -0.23  -0.05   0.03    -0.22   0.10   0.09
  24   1     0.32  -0.10  -0.10     0.17   0.04  -0.07     0.15  -0.07  -0.04
                     34                     35                     36
                        a                      a                      a 
 Frequencies --  1288.3831              1318.2497              1340.1053
 Red. masses --     2.9496                 3.4749                 4.2694
 Frc consts  --     0.0000                 0.0000                 0.0000
 IR Inten    --     1.3372                 1.0886                 2.1348
 Raman Activ --     0.0000                 0.0000                 0.0000
 Depolar     --     0.0000                 0.0000                 0.0000
 Atom AN      X      Y      Z        X      Y      Z        X      Y      Z
   1   6     0.06   0.09   0.03     0.02  -0.02  -0.07    -0.02  -0.03   0.00
   2   6    -0.16  -0.08   0.08    -0.06   0.02  -0.06     0.10  -0.01   0.01
   3   6    -0.18   0.06   0.07     0.11   0.12   0.23    -0.02  -0.06  -0.09
   4   6     0.04   0.00   0.01     0.23   0.09   0.17    -0.06   0.04   0.01
   5   6    -0.03  -0.02  -0.01     0.04  -0.05  -0.10     0.23   0.00  -0.01
   6   6     0.03  -0.01   0.08    -0.02  -0.02  -0.04     0.06  -0.23  -0.23
   7   6    -0.01  -0.09  -0.05     0.04   0.01  -0.02    -0.27  -0.12  -0.08
   8   6    -0.15   0.18  -0.06    -0.13   0.02  -0.01    -0.05   0.06   0.09
   9   1    -0.03  -0.02  -0.02    -0.04   0.04   0.02     0.01   0.01   0.01
  10   1    -0.07   0.01   0.03     0.00  -0.04   0.00     0.00   0.01  -0.01
  11   1     0.07  -0.10  -0.01    -0.00   0.02   0.04    -0.03   0.04   0.01
  12   1     0.04  -0.05  -0.01     0.26  -0.01  -0.04    -0.14   0.02   0.03
  13   1     0.38  -0.07  -0.09    -0.25   0.01   0.06    -0.06   0.03   0.01
  14   1     0.54  -0.20  -0.26    -0.25  -0.23  -0.17     0.05   0.09   0.08
  15   1    -0.08  -0.05  -0.05    -0.33  -0.19  -0.18    -0.02  -0.01   0.04
  16   1     0.04   0.03   0.03    -0.31  -0.18  -0.12     0.03   0.02   0.01
  17   1    -0.05   0.01   0.02     0.11  -0.02  -0.03    -0.18   0.05   0.07
  18   1     0.06  -0.03  -0.02    -0.26  -0.01   0.09    -0.25   0.13   0.07
  19   1     0.01  -0.05  -0.04    -0.01   0.01  -0.01    -0.06   0.32   0.34
  20   1     0.03   0.02   0.04    -0.03   0.08   0.07    -0.03   0.16   0.16
  21   1    -0.18  -0.10  -0.07    -0.04  -0.02  -0.02     0.18   0.11   0.10
  22   1     0.21   0.13   0.03     0.02   0.01  -0.00     0.31   0.18   0.20
  23   1     0.13   0.06  -0.02     0.05   0.01  -0.00     0.09  -0.02  -0.03
  24   1     0.25  -0.10  -0.07     0.23  -0.09  -0.07     0.14   0.03  -0.05
                     37                     38                     39
                        a                      a                      a 
 Frequencies --  1347.9660              1356.1992              1358.8449
 Red. masses --     4.6269                 4.9186                 4.9725
 Frc consts  --     0.0000                 0.0000                 0.0000
 IR Inten    --     0.0915                 0.5966                 1.7907
 Raman Activ --     0.0000                 0.0000                 0.0000
 Depolar     --     0.0000                 0.0000                 0.0000
 Atom AN      X      Y      Z        X      Y      Z        X      Y      Z
   1   6     0.05   0.06  -0.01    -0.03  -0.05  -0.02     0.01   0.05   0.00
   2   6    -0.23   0.03   0.02     0.16  -0.03  -0.04    -0.15   0.04   0.01
   3   6     0.01   0.10   0.14    -0.00   0.07   0.10     0.03  -0.04   0.06
   4   6    -0.12  -0.05  -0.02    -0.01  -0.02  -0.04     0.09  -0.07  -0.01
   5   6     0.27  -0.06  -0.08    -0.06  -0.02  -0.06    -0.37   0.12   0.14
   6   6    -0.04   0.05   0.05     0.03   0.28   0.25     0.16  -0.07  -0.15
   7   6    -0.14  -0.01  -0.03    -0.23  -0.24  -0.19    -0.24  -0.04  -0.08
   8   6     0.31  -0.08  -0.11    -0.04   0.04   0.08     0.15  -0.01  -0.01
   9   1    -0.01  -0.02  -0.03    -0.01   0.03   0.03     0.01  -0.02  -0.03
  10   1    -0.00  -0.03   0.02     0.00   0.01  -0.02     0.03  -0.03   0.01
  11   1     0.05  -0.08  -0.01    -0.04   0.07   0.02     0.04  -0.08  -0.02
  12   1     0.27  -0.03  -0.04    -0.12   0.04   0.03     0.20  -0.03  -0.04
  13   1     0.18  -0.04  -0.04    -0.25   0.06   0.05     0.12  -0.04  -0.02
  14   1    -0.05  -0.21  -0.19     0.02  -0.05  -0.04    -0.06  -0.06  -0.02
  15   1    -0.08  -0.05  -0.02    -0.01   0.00  -0.04     0.13   0.07   0.01
  16   1     0.14   0.09   0.08     0.03  -0.00  -0.01    -0.14  -0.05  -0.03
  17   1    -0.28   0.06   0.09    -0.04   0.04   0.03     0.44  -0.09  -0.14
  18   1    -0.14   0.03   0.05     0.18  -0.08  -0.06     0.25  -0.04  -0.08
  19   1    -0.03   0.10   0.07     0.07  -0.15  -0.09     0.05   0.03   0.11
  20   1     0.01  -0.11  -0.11     0.05  -0.29  -0.29    -0.06   0.14   0.13
  21   1     0.19   0.11   0.09     0.32   0.19   0.16     0.22   0.10   0.07
  22   1    -0.08  -0.05   0.01     0.17   0.10   0.01     0.16   0.10   0.12
  23   1    -0.39   0.09   0.13    -0.02  -0.02  -0.01    -0.22   0.05   0.07
  24   1    -0.17   0.03   0.06     0.27  -0.03  -0.09    -0.03   0.04   0.01
                     40                     41                     42
                        a                      a                      a 
 Frequencies --  1363.7706              1370.4389              1416.0121
 Red. masses --     5.2223                 5.7279                 3.1679
 Frc consts  --     0.0000                 0.0000                 0.0000
 IR Inten    --     0.8832                 0.0311                 1.4337
 Raman Activ --     0.0000                 0.0000                 0.0000
 Depolar     --     0.0000                 0.0000                 0.0000
 Atom AN      X      Y      Z        X      Y      Z        X      Y      Z
   1   6     0.04   0.06   0.02    -0.04  -0.02  -0.00    -0.31   0.28   0.07
   2   6    -0.26   0.08   0.07     0.23  -0.03   0.01     0.09  -0.01  -0.02
   3   6     0.07  -0.27  -0.26    -0.39  -0.08  -0.04    -0.01   0.04   0.01
   4   6     0.12   0.19   0.12     0.27   0.16   0.11    -0.00   0.00   0.01
   5   6     0.04  -0.05  -0.11    -0.03  -0.04  -0.04     0.02  -0.01  -0.01
   6   6    -0.02   0.12   0.11     0.01   0.03  -0.01    -0.00   0.01   0.01
   7   6    -0.03  -0.09  -0.05    -0.05   0.02   0.02     0.01  -0.00   0.00
   8   6    -0.07   0.05   0.14     0.28  -0.04  -0.08    -0.02  -0.01   0.01
   9   1     0.01  -0.04  -0.04     0.02   0.02   0.03     0.40  -0.24  -0.24
  10   1     0.00  -0.03   0.03    -0.01   0.02  -0.01     0.42  -0.27   0.08
  11   1     0.05  -0.08  -0.02    -0.03   0.05   0.04     0.19  -0.45  -0.06
  12   1     0.21  -0.07  -0.07    -0.23   0.01   0.03    -0.10  -0.02  -0.01
  13   1     0.38  -0.09  -0.06    -0.06   0.04   0.01    -0.10  -0.02   0.05
  14   1    -0.11   0.29   0.30     0.39   0.09   0.05    -0.01  -0.00  -0.01
  15   1    -0.09  -0.05   0.02    -0.24  -0.15  -0.09    -0.05  -0.02  -0.05
  16   1    -0.20  -0.14  -0.14    -0.25  -0.13  -0.11     0.03  -0.01  -0.01
  17   1    -0.05   0.05   0.04     0.06   0.00  -0.00    -0.01  -0.00   0.00
  18   1    -0.11  -0.02   0.03    -0.08  -0.00   0.02    -0.01  -0.00   0.00
  19   1     0.01  -0.06  -0.06    -0.00   0.01  -0.02     0.00  -0.01  -0.01
  20   1     0.02  -0.15  -0.15    -0.04  -0.01  -0.02     0.00  -0.00  -0.00
  21   1     0.09   0.08   0.08     0.06   0.03   0.02    -0.00  -0.00  -0.00
  22   1     0.06   0.03   0.01    -0.06  -0.03  -0.01    -0.00  -0.00  -0.01
  23   1     0.12  -0.08  -0.07    -0.25   0.03   0.06     0.03  -0.01  -0.01
  24   1    -0.02   0.05   0.01    -0.25   0.04   0.09     0.02  -0.01  -0.01
                     43                     44                     45
                        a                      a                      a 
 Frequencies --  1482.8981              1488.5060              1491.6838
 Red. masses --     1.8717                 1.9602                 1.9950
 Frc consts  --     0.0000                 0.0000                 0.0000
 IR Inten    --     0.0282                 0.0667                 0.2113
 Raman Activ --     0.0000                 0.0000                 0.0000
 Depolar     --     0.0000                 0.0000                 0.0000
 Atom AN      X      Y      Z        X      Y      Z        X      Y      Z
   1   6    -0.02  -0.02  -0.01     0.02   0.00   0.00    -0.02  -0.02  -0.01
   2   6     0.00   0.06   0.00     0.02   0.04   0.01     0.01   0.08  -0.00
   3   6     0.01  -0.00  -0.01    -0.04  -0.01  -0.00    -0.00   0.03   0.02
   4   6     0.09  -0.00  -0.17    -0.02   0.02   0.09     0.05  -0.02  -0.09
   5   6     0.03   0.09   0.00     0.01   0.07   0.00    -0.05  -0.15  -0.02
   6   6     0.01   0.01   0.03    -0.20   0.07  -0.10    -0.02   0.02  -0.00
   7   6    -0.05  -0.01   0.08    -0.00   0.00  -0.02     0.10  -0.01  -0.17
   8   6    -0.05  -0.13  -0.01    -0.00  -0.11  -0.02    -0.02  -0.08  -0.02
   9   1     0.08   0.07   0.06    -0.04  -0.02  -0.02     0.07   0.07   0.06
  10   1     0.01   0.08  -0.05    -0.01  -0.02   0.01    -0.00   0.08  -0.05
  11   1     0.03  -0.06   0.04    -0.01   0.03  -0.02     0.03  -0.05   0.04
  12   1    -0.04  -0.11  -0.09    -0.03  -0.07  -0.06    -0.06  -0.16  -0.13
  13   1     0.00  -0.13   0.08     0.00  -0.08   0.05    -0.01  -0.18   0.12
  14   1    -0.01   0.00  -0.00     0.03   0.01   0.00     0.00  -0.02  -0.02
  15   1    -0.07  -0.22   0.38     0.02   0.10  -0.19    -0.04  -0.11   0.17
  16   1    -0.26   0.26   0.25     0.12  -0.13  -0.13    -0.12   0.12   0.12
  17   1    -0.09  -0.15  -0.16    -0.08  -0.12  -0.12     0.14   0.23   0.24
  18   1    -0.01  -0.22   0.11    -0.03  -0.16   0.09     0.03   0.31  -0.17
  19   1    -0.02   0.03  -0.04     0.21  -0.33   0.38     0.03  -0.05   0.02
  20   1    -0.05  -0.02  -0.01     0.53   0.10   0.01     0.06  -0.00  -0.01
  21   1     0.15  -0.13  -0.13    -0.03   0.03   0.03    -0.27   0.24   0.24
  22   1     0.03   0.12  -0.21    -0.02  -0.03   0.04    -0.07  -0.22   0.37
  23   1     0.13   0.21   0.21     0.07   0.17   0.17     0.07   0.11   0.11
  24   1     0.02   0.29  -0.15    -0.00   0.22  -0.11     0.02   0.14  -0.09
                     46                     47                     48
                        a                      a                      a 
 Frequencies --  1493.8100              1497.1783              1504.7286
 Red. masses --     1.9102                 1.8926                 1.7003
 Frc consts  --     0.0000                 0.0000                 0.0000
 IR Inten    --     0.2213                 0.0910                 1.4847
 Raman Activ --     0.0000                 0.0000                 0.0000
 Depolar     --     0.0000                 0.0000                 0.0000
 Atom AN      X      Y      Z        X      Y      Z        X      Y      Z
   1   6    -0.03   0.00  -0.01     0.00  -0.03   0.00    -0.11  -0.10  -0.11
   2   6    -0.03  -0.16  -0.00     0.03   0.19   0.01    -0.05  -0.03  -0.02
   3   6     0.02  -0.01  -0.01     0.01   0.03   0.01     0.03   0.01  -0.00
   4   6     0.06   0.00  -0.10    -0.02  -0.01  -0.01    -0.01  -0.01   0.01
   5   6     0.02   0.11   0.01     0.03   0.12   0.02    -0.01  -0.06  -0.01
   6   6    -0.05   0.03  -0.03     0.02  -0.01  -0.00    -0.08   0.01  -0.04
   7   6     0.05  -0.01  -0.12     0.01  -0.00  -0.05    -0.04   0.01   0.08
   8   6     0.02   0.08   0.01     0.04   0.14   0.02     0.02   0.07   0.01
   9   1     0.06   0.01   0.01     0.00   0.07   0.06     0.43   0.33   0.27
  10   1     0.00  -0.00  -0.00     0.01   0.08  -0.05    -0.11   0.30  -0.16
  11   1     0.02  -0.04   0.04     0.01  -0.01  -0.02     0.14  -0.25   0.34
  12   1     0.09   0.27   0.22    -0.14  -0.36  -0.29     0.03   0.03   0.02
  13   1     0.01   0.30  -0.21    -0.02  -0.40   0.27     0.04   0.01  -0.03
  14   1     0.00   0.01   0.00     0.01   0.00  -0.01    -0.03   0.01   0.01
  15   1    -0.04  -0.14   0.25     0.01   0.01  -0.01     0.01   0.01  -0.02
  16   1    -0.19   0.16   0.16     0.03   0.01   0.00     0.01  -0.01  -0.01
  17   1    -0.09  -0.18  -0.19    -0.11  -0.18  -0.19     0.05   0.10   0.10
  18   1    -0.01  -0.24   0.12    -0.01  -0.24   0.13     0.00   0.13  -0.07
  19   1     0.07  -0.10   0.11    -0.01   0.03  -0.02     0.07  -0.11   0.13
  20   1     0.16   0.03  -0.00    -0.03   0.00   0.00     0.19   0.03   0.01
  21   1    -0.18   0.18   0.17    -0.07   0.08   0.07     0.12  -0.11  -0.11
  22   1    -0.04  -0.14   0.27    -0.01  -0.05   0.11     0.02   0.09  -0.17
  23   1    -0.07  -0.13  -0.14    -0.13  -0.23  -0.23    -0.06  -0.11  -0.11
  24   1    -0.01  -0.18   0.09    -0.01  -0.31   0.16    -0.01  -0.14   0.08
                     49                     50                     51
                        a                      a                      a 
 Frequencies --  1507.7671              1511.2452              2918.5847
 Red. masses --     1.9354                 1.5676                 1.7362
 Frc consts  --     0.0000                 0.0000                 0.0000
 IR Inten    --     0.3441                 2.2981                26.6341
 Raman Activ --     0.0000                 0.0000                 0.0000
 Depolar     --     0.0000                 0.0000                 0.0000
 Atom AN      X      Y      Z        X      Y      Z        X      Y      Z
   1   6    -0.05  -0.05  -0.07     0.07   0.11  -0.17     0.00   0.01  -0.00
   2   6    -0.02  -0.04  -0.01     0.03   0.05  -0.04    -0.00   0.00  -0.02
   3   6    -0.02  -0.01  -0.00     0.00  -0.00   0.00     0.02  -0.18   0.18
   4   6    -0.05   0.01   0.11     0.00  -0.01  -0.03    -0.01   0.02  -0.00
   5   6     0.02   0.11   0.03    -0.01   0.00   0.00    -0.00   0.01  -0.01
   6   6     0.12  -0.03   0.05    -0.00  -0.00  -0.00    -0.00  -0.00   0.00
   7   6     0.05  -0.02  -0.10    -0.00   0.00   0.00    -0.00   0.01  -0.01
   8   6    -0.03  -0.11  -0.02     0.00   0.01   0.00    -0.01   0.00  -0.02
   9   1     0.24   0.16   0.13     0.17  -0.22  -0.21    -0.00  -0.01   0.01
  10   1    -0.10   0.13  -0.06    -0.47  -0.37   0.31    -0.00  -0.00  -0.00
  11   1     0.07  -0.11   0.22    -0.01   0.15   0.58    -0.01  -0.00   0.00
  12   1     0.03   0.05   0.04    -0.05  -0.03  -0.04     0.00  -0.05   0.06
  13   1     0.02   0.05  -0.05    -0.01  -0.07   0.04     0.01   0.03   0.04
  14   1     0.02   0.01   0.01    -0.02  -0.00  -0.00    -0.07   0.67  -0.68
  15   1     0.05   0.14  -0.23     0.03  -0.00   0.06     0.03  -0.03  -0.01
  16   1     0.17  -0.16  -0.16    -0.02   0.03   0.03     0.00  -0.04   0.05
  17   1    -0.08  -0.16  -0.17     0.01   0.00   0.00     0.00  -0.03   0.03
  18   1    -0.01  -0.21   0.12     0.01   0.00  -0.00     0.01   0.01   0.01
  19   1    -0.11   0.18  -0.20     0.00  -0.01   0.01     0.01   0.00  -0.00
  20   1    -0.30  -0.05  -0.01     0.01   0.00   0.00    -0.00   0.00  -0.00
  21   1    -0.14   0.14   0.14     0.00  -0.00  -0.00     0.00  -0.02   0.02
  22   1    -0.02  -0.12   0.20     0.00   0.00  -0.01     0.01  -0.01  -0.01
  23   1     0.10   0.17   0.18    -0.01  -0.02  -0.02     0.00  -0.06   0.05
  24   1     0.01   0.23  -0.12     0.00  -0.02   0.01     0.02   0.03   0.05
                     52                     53                     54
                        a                      a                      a 
 Frequencies --  2955.5109              2957.1061              2958.5156
 Red. masses --     1.9310                 1.9009                 1.9000
 Frc consts  --     0.0000                 0.0000                 0.0000
 IR Inten    --    13.1745                19.6642                11.7366
 Raman Activ --     0.0000                 0.0000                 0.0000
 Depolar     --     0.0000                 0.0000                 0.0000
 Atom AN      X      Y      Z        X      Y      Z        X      Y      Z
   1   6     0.00  -0.00   0.00     0.00   0.00   0.01     0.01   0.00   0.01
   2   6    -0.02  -0.01  -0.08    -0.04  -0.01  -0.18    -0.03  -0.02  -0.15
   3   6     0.00  -0.00   0.01    -0.00   0.00  -0.00    -0.00   0.00  -0.01
   4   6    -0.02   0.07  -0.05     0.02  -0.09   0.07     0.00  -0.01   0.01
   5   6     0.02  -0.03   0.09    -0.04   0.05  -0.15     0.02  -0.03   0.09
   6   6     0.00   0.01  -0.00    -0.02  -0.04   0.03     0.05   0.11  -0.10
   7   6    -0.04   0.11  -0.05     0.00   0.01  -0.01     0.05  -0.13   0.05
   8   6     0.05  -0.05   0.20     0.02   0.00   0.06     0.01   0.02  -0.00
   9   1    -0.00   0.01  -0.01    -0.00   0.03  -0.03    -0.00   0.02  -0.02
  10   1    -0.00  -0.01  -0.01    -0.01  -0.02  -0.04    -0.01  -0.02  -0.03
  11   1    -0.00  -0.00   0.00    -0.01  -0.00   0.00    -0.01  -0.01   0.00
  12   1     0.00  -0.09   0.11     0.01  -0.23   0.26     0.01  -0.17   0.19
  13   1     0.06   0.11   0.17     0.13   0.26   0.38     0.12   0.23   0.34
  14   1    -0.00   0.01  -0.02     0.00  -0.02   0.02    -0.00  -0.00   0.00
  15   1     0.06  -0.06  -0.04    -0.05   0.05   0.04    -0.00   0.00   0.00
  16   1     0.01  -0.21   0.22    -0.02   0.29  -0.31    -0.00   0.03  -0.03
  17   1    -0.01   0.20  -0.19     0.02  -0.32   0.30    -0.02   0.22  -0.20
  18   1    -0.07  -0.08  -0.14     0.11   0.14   0.25    -0.07  -0.08  -0.14
  19   1    -0.01  -0.00   0.00     0.07   0.03  -0.01    -0.23  -0.08   0.04
  20   1     0.00  -0.01   0.01    -0.02   0.13  -0.13     0.05  -0.33   0.34
  21   1     0.02  -0.26   0.28     0.00  -0.05   0.05    -0.02   0.27  -0.30
  22   1     0.12  -0.13  -0.07    -0.00   0.00  -0.00    -0.16   0.19   0.09
  23   1    -0.02   0.38  -0.36    -0.00   0.07  -0.06     0.01  -0.08   0.08
  24   1    -0.16  -0.19  -0.36    -0.07  -0.08  -0.16    -0.02  -0.02  -0.05
                     55                     56                     57
                        a                      a                      a 
 Frequencies --  2962.2751              2964.0182              2968.7501
 Red. masses --     1.9818                 1.9114                 1.7410
 Frc consts  --     0.0000                 0.0000                 0.0000
 IR Inten    --    31.0206                 3.9184                46.0563
 Raman Activ --     0.0000                 0.0000                 0.0000
 Depolar     --     0.0000                 0.0000                 0.0000
 Atom AN      X      Y      Z        X      Y      Z        X      Y      Z
   1   6     0.00  -0.00   0.01    -0.00   0.00  -0.00    -0.00   0.00  -0.00
   2   6    -0.03  -0.02  -0.13     0.01   0.03   0.02     0.01   0.01   0.05
   3   6    -0.01   0.02  -0.03     0.00  -0.01   0.01     0.00  -0.01   0.02
   4   6    -0.00   0.02  -0.02     0.04  -0.14   0.09     0.04  -0.12   0.06
   5   6     0.03  -0.02   0.11     0.01  -0.02   0.05     0.05   0.04   0.13
   6   6    -0.06  -0.08   0.08     0.08   0.09  -0.07    -0.10  -0.04   0.02
   7   6    -0.04   0.08  -0.02    -0.08   0.14  -0.02     0.05  -0.03  -0.06
   8   6    -0.05   0.03  -0.16    -0.03  -0.04  -0.04     0.03   0.04   0.05
   9   1     0.00   0.02  -0.02    -0.00  -0.00   0.00    -0.00  -0.01   0.01
  10   1    -0.01  -0.02  -0.03     0.00   0.00   0.00     0.00   0.00   0.01
  11   1    -0.01  -0.00   0.00     0.01   0.00  -0.00     0.00   0.00  -0.00
  12   1     0.00  -0.14   0.15     0.00  -0.03   0.05    -0.00   0.04  -0.04
  13   1     0.11   0.21   0.31    -0.04  -0.07  -0.12    -0.04  -0.08  -0.12
  14   1     0.01  -0.07   0.07    -0.00   0.02  -0.02    -0.01   0.05  -0.05
  15   1     0.01  -0.01  -0.01    -0.11   0.12   0.07    -0.14   0.16   0.08
  16   1     0.01  -0.07   0.08    -0.03   0.36  -0.38    -0.02   0.28  -0.30
  17   1    -0.01   0.17  -0.16    -0.01   0.11  -0.11     0.00   0.04  -0.02
  18   1    -0.11  -0.12  -0.25    -0.03  -0.03  -0.06    -0.19  -0.20  -0.43
  19   1     0.24   0.09  -0.04    -0.32  -0.13   0.06     0.39   0.17  -0.09
  20   1    -0.03   0.22  -0.23     0.03  -0.19   0.20    -0.01  -0.04   0.03
  21   1     0.01  -0.12   0.14     0.00  -0.17   0.20     0.02  -0.13   0.11
  22   1     0.14  -0.16  -0.07     0.28  -0.34  -0.15    -0.20   0.25   0.09
  23   1     0.02  -0.26   0.24    -0.01   0.07  -0.08     0.01  -0.05   0.07
  24   1     0.15   0.18   0.35     0.09   0.09   0.21    -0.11  -0.11  -0.25
                     58                     59                     60
                        a                      a                      a 
 Frequencies --  2971.7572              2975.7791              2978.9837
 Red. masses --     1.5463                 1.4999                 1.4967
 Frc consts  --     0.0000                 0.0000                 0.0000
 IR Inten    --     0.7580                 2.1249               106.2663
 Raman Activ --     0.0000                 0.0000                 0.0000
 Depolar     --     0.0000                 0.0000                 0.0000
 Atom AN      X      Y      Z        X      Y      Z        X      Y      Z
   1   6    -0.01  -0.01   0.01    -0.01  -0.01   0.00     0.01   0.01  -0.00
   2   6     0.01   0.13  -0.05     0.02   0.11  -0.02    -0.01  -0.08   0.01
   3   6     0.00   0.00  -0.01     0.00   0.01  -0.00    -0.00  -0.01   0.00
   4   6     0.00   0.01  -0.02    -0.03   0.01   0.04    -0.02   0.02   0.03
   5   6     0.01   0.05   0.01    -0.03  -0.13   0.00    -0.03  -0.05  -0.04
   6   6    -0.05  -0.02   0.01     0.01  -0.03   0.03    -0.08   0.02  -0.05
   7   6     0.01  -0.06   0.04     0.04  -0.01  -0.06     0.04  -0.01  -0.09
   8   6    -0.03  -0.13   0.00     0.01   0.05  -0.02    -0.03  -0.10  -0.04
   9   1    -0.00   0.03  -0.04    -0.00   0.02  -0.03     0.00  -0.02   0.02
  10   1    -0.00   0.00   0.01     0.00   0.01   0.03    -0.00  -0.00  -0.01
  11   1     0.03   0.01  -0.00     0.03   0.02  -0.00    -0.03  -0.01   0.00
  12   1     0.03  -0.33   0.44     0.02  -0.26   0.35    -0.02   0.19  -0.25
  13   1    -0.08  -0.14  -0.26    -0.09  -0.15  -0.27     0.07   0.12   0.21
  14   1     0.00  -0.01   0.01     0.00  -0.01   0.01     0.00  -0.00   0.00
  15   1    -0.01   0.01   0.00     0.12  -0.15  -0.06     0.10  -0.12  -0.05
  16   1     0.01  -0.05   0.05    -0.01   0.10  -0.09    -0.01   0.06  -0.06
  17   1     0.01  -0.12   0.12    -0.04   0.33  -0.35    -0.01   0.08  -0.09
  18   1    -0.07  -0.07  -0.16     0.15   0.14   0.35     0.10   0.10   0.24
  19   1     0.17   0.08  -0.04    -0.02  -0.01   0.01     0.27   0.12  -0.07
  20   1    -0.01  -0.02   0.02    -0.01   0.11  -0.11     0.01  -0.22   0.22
  21   1    -0.01   0.15  -0.16     0.02  -0.16   0.15     0.02  -0.22   0.21
  22   1    -0.05   0.06   0.03    -0.16   0.21   0.08    -0.20   0.26   0.09
  23   1    -0.03   0.33  -0.34     0.02  -0.13   0.14    -0.02   0.20  -0.22
  24   1     0.14   0.14   0.34    -0.04  -0.03  -0.09     0.15   0.16   0.36
                     61                     62                     63
                        a                      a                      a 
 Frequencies --  2982.5358              2983.2531              2988.2150
 Red. masses --     1.6902                 1.5905                 1.6001
 Frc consts  --     0.0000                 0.0000                 0.0000
 IR Inten    --   225.8771               142.6289                71.4570
 Raman Activ --     0.0000                 0.0000                 0.0000
 Depolar     --     0.0000                 0.0000                 0.0000
 Atom AN      X      Y      Z        X      Y      Z        X      Y      Z
   1   6     0.00   0.01  -0.01     0.01   0.01  -0.00    -0.01  -0.01  -0.02
   2   6    -0.00  -0.04   0.03    -0.01  -0.04   0.01     0.00  -0.00   0.01
   3   6     0.00  -0.02   0.02     0.00  -0.01   0.01    -0.00   0.01   0.00
   4   6    -0.01  -0.04   0.06     0.02  -0.04   0.02    -0.13   0.13   0.11
   5   6    -0.01  -0.09   0.05     0.02  -0.00   0.06     0.02   0.07   0.03
   6   6    -0.07  -0.08   0.07     0.13  -0.05   0.08     0.02   0.01  -0.00
   7   6    -0.04  -0.04   0.13     0.06  -0.08  -0.03    -0.00   0.01   0.00
   8   6     0.01  -0.04   0.06    -0.01  -0.07   0.01     0.00   0.01  -0.00
   9   1     0.00  -0.03   0.03     0.00  -0.02   0.02    -0.00  -0.00   0.00
  10   1     0.00   0.01   0.01    -0.00  -0.01  -0.01     0.01   0.03   0.05
  11   1    -0.01  -0.01  -0.00    -0.02  -0.01   0.00     0.01   0.00  -0.00
  12   1    -0.01   0.12  -0.15    -0.01   0.11  -0.14    -0.00   0.02  -0.02
  13   1     0.01   0.02   0.04     0.03   0.05   0.09    -0.01  -0.01  -0.02
  14   1    -0.01   0.05  -0.05    -0.00   0.03  -0.03     0.00  -0.01   0.02
  15   1     0.05  -0.08  -0.02    -0.06   0.07   0.03     0.51  -0.65  -0.25
  16   1    -0.02   0.20  -0.21    -0.00   0.09  -0.09    -0.03   0.19  -0.16
  17   1    -0.03   0.29  -0.29    -0.00   0.08  -0.07     0.02  -0.13   0.15
  18   1     0.05   0.04   0.12    -0.07  -0.08  -0.16    -0.11  -0.11  -0.25
  19   1     0.29   0.12  -0.06    -0.45  -0.21   0.11    -0.09  -0.04   0.02
  20   1    -0.03   0.16  -0.16    -0.03   0.39  -0.40     0.00   0.00  -0.00
  21   1    -0.04   0.38  -0.39     0.01  -0.01  -0.00    -0.00  -0.00   0.01
  22   1     0.18  -0.24  -0.07    -0.23   0.29   0.12     0.02  -0.02  -0.01
  23   1    -0.02   0.18  -0.17    -0.02   0.19  -0.20     0.00  -0.03   0.03
  24   1    -0.03  -0.03  -0.05     0.06   0.06   0.15    -0.01  -0.01  -0.02
                     64                     65                     66
                        a                      a                      a 
 Frequencies --  3029.1688              3032.2357              3044.5657
 Red. masses --     1.9309                 1.7238                 1.4934
 Frc consts  --     0.0000                 0.0000                 0.0000
 IR Inten    --    60.5937                49.6464                38.4025
 Raman Activ --     0.0000                 0.0000                 0.0000
 Depolar     --     0.0000                 0.0000                 0.0000
 Atom AN      X      Y      Z        X      Y      Z        X      Y      Z
   1   6     0.13   0.20  -0.16     0.19   0.03   0.16     0.02  -0.11  -0.18
   2   6     0.00   0.03  -0.02     0.01   0.01   0.02    -0.00  -0.01  -0.02
   3   6    -0.00   0.00  -0.01    -0.00  -0.00   0.00    -0.00  -0.00  -0.00
   4   6    -0.00   0.01  -0.00    -0.00   0.00   0.00     0.01  -0.01  -0.01
   5   6    -0.00   0.00  -0.00    -0.00  -0.00   0.00    -0.00  -0.00  -0.00
   6   6    -0.00   0.00  -0.00    -0.00  -0.00   0.00    -0.00   0.00  -0.00
   7   6    -0.00   0.00  -0.00    -0.00   0.00   0.00     0.00  -0.00   0.00
   8   6     0.00   0.00  -0.00     0.00   0.00   0.00    -0.00  -0.00  -0.00
   9   1     0.03  -0.50   0.59     0.02   0.37  -0.40    -0.00   0.09  -0.15
  10   1     0.01   0.01  -0.06    -0.04  -0.15  -0.26     0.19   0.44   0.77
  11   1    -0.50  -0.23   0.02    -0.65  -0.33   0.08    -0.26  -0.14  -0.00
  12   1     0.00  -0.06   0.08     0.00   0.02  -0.02     0.00  -0.01   0.01
  13   1    -0.01  -0.01  -0.02    -0.02  -0.04  -0.06     0.02   0.03   0.05
  14   1    -0.00  -0.02   0.02     0.00   0.00  -0.00    -0.00   0.00  -0.00
  15   1     0.01  -0.01  -0.01     0.02  -0.02  -0.01    -0.03   0.04   0.02
  16   1     0.00  -0.01   0.01    -0.00   0.01  -0.01     0.00  -0.01   0.00
  17   1     0.00  -0.01   0.01    -0.00   0.00  -0.00    -0.00   0.00  -0.00
  18   1     0.00   0.00   0.00    -0.00  -0.00  -0.00     0.00   0.00   0.00
  19   1    -0.00   0.00  -0.00     0.00   0.00  -0.00     0.00   0.00  -0.00
  20   1     0.00  -0.00   0.00    -0.00  -0.00   0.00     0.00  -0.00   0.00
  21   1     0.00  -0.01   0.01    -0.00   0.00  -0.00    -0.00   0.00  -0.00
  22   1     0.00  -0.00  -0.00     0.00  -0.00  -0.00    -0.00   0.00   0.00
  23   1     0.00  -0.01   0.01    -0.00   0.00   0.00    -0.00   0.00  -0.00
  24   1    -0.00  -0.00  -0.00    -0.00  -0.00  -0.01     0.00   0.00   0.01
