24
 energy: -25.316768729102 gnorm: 0.000067111134 xtb: 6.7.1pre (5071a88)
C            2.96986505503874       -0.44793987690196       -0.19170228409698
C            1.90999509404339        0.61543146791764        0.07282882543298
C            0.51130578070056        0.04055745179677        0.32228183026153
C           -0.08008832191965       -0.59974805484374       -0.93472991363783
C           -1.47795424216397       -1.15021618012786       -0.66599211069100
C           -2.40477659750549       -0.04669339898755       -0.16794105589825
C           -1.82844504693438        0.59232384223359        1.09083189930638
C           -0.43077203596416        1.14019825463613        0.81928006480334
H            3.00021681681905       -1.16693620328314        0.62430756047692
H            2.76819015914710       -0.98401328515576       -1.11533615675619
H            3.95127273084694        0.01339072690492       -0.27754975776499
H            1.86853701525407        1.30474313103979       -0.77397353594604
H            2.20796330538129        1.19321583801028        0.95166372338414
H            0.58689841034654       -0.72760825146810        1.10098845809870
H            0.56381624734858       -1.40953823468225       -1.28129560340026
H           -0.13265049499785        0.15075277877568       -1.72751819430407
H           -1.41719075414752       -1.93839239881376        0.08852167248910
H           -1.88201363680092       -1.59316696221048       -1.57915728710548
H           -3.39611300756685       -0.45548662040823        0.03960751229774
H           -2.51198981048974        0.71462334327975       -0.94426583841773
H           -1.77595807259930       -0.15658246787294        1.88481164622461
H           -2.48153663485630        1.39776958103373        1.43417604765716
H           -0.49137231463159        1.92716748900771        0.06334816642909
H           -0.02719964434859        1.58614903011955        1.73151333115729
