      -----------------------------------------------------------      
     |                   =====================                   |     
     |                           x T B                           |     
     |                   =====================                   |     
     |                         S. Grimme                         |     
     |          Mulliken Center for Theoretical Chemistry        |     
     |                    University of Bonn                     |     
      -----------------------------------------------------------      

   * xtb version 6.7.1pre (5071a88) compiled by 'Marcel@Raven' on 2024-07-23

   xtb is free software: you can redistribute it and/or modify it under
   the terms of the GNU Lesser General Public License as published by
   the Free Software Foundation, either version 3 of the License, or
   (at your option) any later version.
   
   xtb is distributed in the hope that it will be useful,
   but WITHOUT ANY WARRANTY; without even the implied warranty of
   MERCHANTABILITY or FITNESS FOR A PARTICULAR PURPOSE.  See the
   GNU Lesser General Public License for more details.
   
   Cite this work as:
   * C. Bannwarth, E. Caldeweyher, S. Ehlert, A. Hansen, P. Pracht,
     J. Seibert, S. Spicher, S. Grimme, WIREs Comput. Mol. Sci., 2020, 11,
     e01493. DOI: 10.1002/wcms.1493
   
   for GFN2-xTB:
   * C. Bannwarth, S. Ehlert and S. Grimme., J. Chem. Theory Comput., 2019,
     15, 1652-1671. DOI: 10.1021/acs.jctc.8b01176
   for GFN1-xTB:
   * S. Grimme, C. Bannwarth, P. Shushkov, J. Chem. Theory Comput., 2017,
     13, 1989-2009. DOI: 10.1021/acs.jctc.7b00118
   for GFN0-xTB:
   * P. Pracht, E. Caldeweyher, S. Ehlert, S. Grimme, ChemRxiv, 2019, preprint.
     DOI: 10.26434/chemrxiv.8326202.v1
   for GFN-FF:
   * S. Spicher and S. Grimme, Angew. Chem. Int. Ed., 2020, 59, 15665-15673.
     DOI: 10.1002/anie.202004239
   
   for ALPB and GBSA implicit solvation:
   * S. Ehlert, M. Stahn, S. Spicher, S. Grimme, J. Chem. Theory Comput.,
     2021, 17, 4250-4261. DOI: 10.1021/acs.jctc.1c00471
   
   for ddCOSMO and CPCM-X implicit solvation:
   * M. Stahn, S. Ehlert, S. Grimme, J. Phys. Chem. A,
     2023, XX, XXXX-XXXX. DOI: 10.1021/acs.jpca.3c04382
   
   for DFT-D4:
   * E. Caldeweyher, C. Bannwarth and S. Grimme, J. Chem. Phys., 2017,
     147, 034112. DOI: 10.1063/1.4993215
   * E. Caldeweyher, S. Ehlert, A. Hansen, H. Neugebauer, S. Spicher,
     C. Bannwarth and S. Grimme, J. Chem. Phys., 2019, 150, 154122.
     DOI: 10.1063/1.5090222
   * E. Caldeweyher, J.-M. Mewes, S. Ehlert and S. Grimme, Phys. Chem. Chem. Phys.
     2020, 22, 8499-8512. DOI: 10.1039/D0CP00502A
   
   for sTDA-xTB:
   * S. Grimme and C. Bannwarth, J. Chem. Phys., 2016, 145, 054103.
     DOI: 10.1063/1.4959605
   
   in the mass-spec context:
   * V. Asgeirsson, C. Bauer and S. Grimme, Chem. Sci., 2017, 8, 4879.
     DOI: 10.1039/c7sc00601b
   * J. Koopman and S. Grimme, ACS Omega 2019, 4, 12, 15120-15133.
     DOI: 10.1021/acsomega.9b02011
   
   for metadynamics refer to:
   * S. Grimme, J. Chem. Theory Comput., 2019, 155, 2847-2862
     DOI: 10.1021/acs.jctc.9b00143
   
   for SPH calculations refer to:
   * S. Spicher and S. Grimme, J. Chem. Theory Comput., 2021, 17, 1701-1714
     DOI: 10.1021/acs.jctc.0c01306
   
   for ONIOM refer to:
   * C. Plett, A. Katbashev, S. Ehlert, S. Grimme, M. Bursch,
     Phys. Chem. Chem. Phys., 2023, 25, 17860-17868. DOI: 10.1039/D3CP02178E
   
   for DIPRO refer to:
   * J. Kohn, N. Gildemeister, S. Grimme, D. Fazzi, A. Hansen,
     J. Chem. Phys., 2023, just accepted.
   
   for PTB refer to:
   * S. Grimme, M. Mueller, A. Hansen, J. Chem. Phys., 2023, 158, 124111.
     DOI: 10.1063/5.0137838
   
   with help from (in alphabetical order)
   P. Atkinson, C. Bannwarth, F. Bohle, G. Brandenburg, E. Caldeweyher
   M. Checinski, S. Dohm, S. Ehlert, S. Ehrlich, I. Gerasimov, C. Hölzer
   A. Katbashev, J. Kohn, J. Koopman, C. Lavigne, S. Lehtola, F. März, M. Müller,
   F. Musil, H. Neugebauer, J. Pisarek, C. Plett, P. Pracht, F. Pultar,
   J. Seibert, P. Shushkov, S. Spicher, M. Stahn, M. Steiner, T. Strunk,
   J. Stückrath, T. Rose, and J. Unsleber
   
 * started run on 2026/09/17 at 00:40:32.026     
   ID    Z sym.   atoms
    1    6 C      1-8
    2    1 H      9-24

           -------------------------------------------------
          |                Calculation Setup                |
           -------------------------------------------------

          program call               : C:\ORCA_6.1.1\xtb-6.7.1pre\xtb.exe optimized.xyz --gfn 2 --chrg 0 --uhf 0 --hess --json
          coordinate file            : optimized.xyz
          omp threads                :                     4


           -------------------------------------------------
          |                 G F N 2 - x T B                 |
           -------------------------------------------------

        Reference                      10.1021/acs.jctc.8b01176
      * Hamiltonian:
        H0-scaling (s, p, d)           1.850000    2.230000    2.230000
        zeta-weighting                 0.500000
      * Dispersion:
        s8                             2.700000
        a1                             0.520000
        a2                             5.000000
        s9                             5.000000
      * Repulsion:
        kExp                           1.500000    1.000000
        rExp                           1.000000
      * Coulomb:
        alpha                          2.000000
        third order                    shell-resolved
        anisotropic                    true
        a3                             3.000000
        a5                             4.000000
        cn-shift                       1.200000
        cn-exp                         4.000000
        max-rad                        5.000000

q/qsh data taken from xtbrestart
CAMM data taken from xtbrestart

          ...................................................
          :                      SETUP                      :
          :.................................................:
          :  # basis functions                  48          :
          :  # atomic orbitals                  48          :
          :  # shells                           32          :
          :  # electrons                        48          :
          :  max. iterations                   250          :
          :  Hamiltonian                  GFN2-xTB          :
          :  restarted?                       true          :
          :  GBSA solvation                  false          :
          :  PC potential                    false          :
          :  electronic temp.          300.0000000     K    :
          :  accuracy                    1.0000000          :
          :  -> integral cutoff          0.2500000E+02      :
          :  -> integral neglect         0.1000000E-07      :
          :  -> SCF convergence          0.1000000E-05 Eh   :
          :  -> wf. convergence          0.1000000E-03 e    :
          :  Broyden damping             0.4000000          :
          :  net charge                          0          :
          :  unpaired electrons                  0          :
          ...................................................

 iter      E             dE          RMSdq      gap      omega  full diag
   1    -25.6919267 -0.256919E+02  0.147E-05   12.73       0.0  T
   2    -25.6919267 -0.213163E-13  0.870E-06   12.73    2346.8  T
   3    -25.6919267  0.177636E-13  0.229E-07   12.73   89203.1  T

   *** convergence criteria satisfied after 3 iterations ***

         #    Occupation            Energy/Eh            Energy/eV
      -------------------------------------------------------------
         1        2.0000           -0.6301529             -17.1473
       ...           ...                  ...                  ...
        18        2.0000           -0.4441603             -12.0862
        19        2.0000           -0.4331862             -11.7876
        20        2.0000           -0.4320638             -11.7571
        21        2.0000           -0.4244016             -11.5486
        22        2.0000           -0.4150263             -11.2934
        23        2.0000           -0.4065942             -11.0640
        24        2.0000           -0.4036600             -10.9841 (HOMO)
        25                          0.0643141               1.7501 (LUMO)
        26                          0.0813120               2.2126
        27                          0.0938441               2.5536
        28                          0.1073806               2.9220
        29                          0.1146571               3.1200
       ...                                ...                  ...
        48                          0.3197319               8.7003
      -------------------------------------------------------------
                  HL-Gap            0.4679741 Eh           12.7342 eV
             Fermi-level           -0.1696730 Eh           -4.6170 eV

 SCC (total)                   0 d,  0 h,  0 min,  0.006 sec
 SCC setup                      ...        0 min,  0.000 sec (  0.000%)
 Dispersion                     ...        0 min,  0.001 sec ( 16.665%)
 classical contributions        ...        0 min,  0.000 sec (  0.000%)
 integral evaluation            ...        0 min,  0.000 sec (  0.000%)
 iterations                     ...        0 min,  0.003 sec ( 50.000%)
 molecular gradient             ...        0 min,  0.002 sec ( 33.335%)
 printout                       ...        0 min,  0.000 sec (  0.000%)

         :::::::::::::::::::::::::::::::::::::::::::::::::::::
         ::                     SUMMARY                     ::
         :::::::::::::::::::::::::::::::::::::::::::::::::::::
         :: total energy             -25.316768729102 Eh    ::
         :: gradient norm              0.000067111368 Eh/a0 ::
         :: HOMO-LUMO gap             12.734223669269 eV    ::
         ::.................................................::
         :: SCC energy               -25.691841562178 Eh    ::
         :: -> isotropic ES            0.003867133087 Eh    ::
         :: -> anisotropic ES          0.007353649237 Eh    ::
         :: -> anisotropic XC          0.014553837610 Eh    ::
         :: -> dispersion             -0.016793733930 Eh    ::
         :: repulsion energy           0.375072833076 Eh    ::
         :: add. restraining           0.000000000000 Eh    ::
         :: total charge              -0.000000000000 e     ::
         :::::::::::::::::::::::::::::::::::::::::::::::::::::

           ------------------------------------------------- 
          |                Numerical Hessian                |
           ------------------------------------------------- 
step length          :   0.00500
SCC accuracy         :   0.30000
Hessian scale factor :   1.00000
frozen atoms in %    :   0.00000    0
RMS gradient         :   0.00007
estimated CPU  time      0.08 min
estimated wall time      0.02 min

writing file <hessian>.

 projected vibrational frequencies (cm⁻¹)
eigval :       -0.00    -0.00     0.00     0.00     0.00     0.00
eigval :       69.39   125.14   212.85   227.09   232.53   325.35
eigval :      359.76   422.31   439.05   456.86   549.44   799.80
eigval :      821.51   838.43   897.76   918.01   932.64   966.73
eigval :      967.25   995.72  1043.32  1072.06  1082.08  1099.64
eigval :     1122.21  1134.74  1144.94  1179.02  1202.63  1236.25
eigval :     1245.64  1251.83  1273.10  1288.38  1318.25  1340.11
eigval :     1347.97  1356.20  1358.84  1363.77  1370.44  1416.01
eigval :     1482.90  1488.51  1491.68  1493.81  1497.18  1504.73
eigval :     1507.77  1511.25  2918.58  2955.51  2957.11  2958.52
eigval :     2962.28  2964.02  2968.75  2971.76  2975.78  2978.98
eigval :     2982.54  2983.25  2988.21  3029.17  3032.24  3044.57
           -------------------------------------------------
          |                Property Printout                |
           -------------------------------------------------

    * Orbital Energies and Occupations

         #    Occupation            Energy/Eh            Energy/eV
      -------------------------------------------------------------
         1        2.0000           -0.6301529             -17.1473
       ...           ...                  ...                  ...
        12        2.0000           -0.4907676             -13.3545
        13        2.0000           -0.4849182             -13.1953
        14        2.0000           -0.4794023             -13.0452
        15        2.0000           -0.4681469             -12.7389
        16        2.0000           -0.4591803             -12.4949
        17        2.0000           -0.4477059             -12.1827
        18        2.0000           -0.4441603             -12.0862
        19        2.0000           -0.4331862             -11.7876
        20        2.0000           -0.4320638             -11.7571
        21        2.0000           -0.4244016             -11.5486
        22        2.0000           -0.4150263             -11.2934
        23        2.0000           -0.4065942             -11.0640
        24        2.0000           -0.4036600             -10.9841 (HOMO)
        25                          0.0643141               1.7501 (LUMO)
        26                          0.0813120               2.2126
        27                          0.0938441               2.5536
        28                          0.1073806               2.9220
        29                          0.1146571               3.1200
        30                          0.1175848               3.1996
        31                          0.1322856               3.5997
        32                          0.1508052               4.1036
        33                          0.1600736               4.3558
        34                          0.1693754               4.6089
        35                          0.1789725               4.8701
       ...                                ...                  ...
        48                          0.3197319               8.7003
      -------------------------------------------------------------
                  HL-Gap            0.4679741 Eh           12.7342 eV
             Fermi-level           -0.1696730 Eh           -4.6170 eV

     #   Z          covCN         q      C6AA      α(0)
     1   6 C        3.751    -0.101    22.493     6.764
     2   6 C        3.803    -0.057    21.597     6.616
     3   6 C        3.854    -0.019    20.882     6.499
     4   6 C        3.808    -0.058    21.617     6.618
     5   6 C        3.805    -0.054    21.545     6.608
     6   6 C        3.806    -0.055    21.560     6.610
     7   6 C        3.805    -0.054    21.542     6.607
     8   6 C        3.809    -0.059    21.621     6.619
     9   1 H        0.925     0.033     2.548     2.496
    10   1 H        0.925     0.033     2.539     2.492
    11   1 H        0.925     0.032     2.560     2.502
    12   1 H        0.924     0.028     2.611     2.527
    13   1 H        0.924     0.028     2.613     2.528
    14   1 H        0.924     0.029     2.606     2.524
    15   1 H        0.924     0.028     2.608     2.526
    16   1 H        0.924     0.030     2.589     2.516
    17   1 H        0.924     0.029     2.603     2.523
    18   1 H        0.924     0.025     2.664     2.553
    19   1 H        0.924     0.024     2.669     2.555
    20   1 H        0.924     0.030     2.581     2.513
    21   1 H        0.924     0.029     2.597     2.520
    22   1 H        0.924     0.025     2.658     2.550
    23   1 H        0.924     0.030     2.587     2.515
    24   1 H        0.924     0.024     2.674     2.557

 Mol. C6AA /au·bohr⁶  :       3958.872994
 Mol. C8AA /au·bohr⁸  :      83749.163072
 Mol. α(0) /au        :         93.337911


Wiberg/Mayer (AO) data.
largest (>0.10) Wiberg bond orders for each atom

 ---------------------------------------------------------------------------
     #   Z sym  total        # sym  WBO       # sym  WBO       # sym  WBO
 ---------------------------------------------------------------------------
     1   6 C    3.997 --     2 C    1.019     9 H    0.988    11 H    0.987
                            10 H    0.986
     2   6 C    3.997 --     1 C    1.019     3 C    0.996    12 H    0.978
                            13 H    0.977
     3   6 C    3.996 --     4 C    0.998     8 C    0.997     2 C    0.996
                            14 H    0.967
     4   6 C    3.998 --     5 C    1.008     3 C    0.998    16 H    0.976
                            15 H    0.974
     5   6 C    3.998 --     6 C    1.009     4 C    1.008    18 H    0.978
                            17 H    0.978
     6   6 C    3.998 --     5 C    1.009     7 C    1.009    19 H    0.978
                            20 H    0.978
     7   6 C    3.998 --     6 C    1.009     8 C    1.008    21 H    0.978
                            22 H    0.978
     8   6 C    3.998 --     7 C    1.008     3 C    0.997    23 H    0.977
                            24 H    0.977
     9   1 H    0.999 --     1 C    0.988
    10   1 H    0.999 --     1 C    0.986
    11   1 H    0.999 --     1 C    0.987
    12   1 H    0.999 --     2 C    0.978
    13   1 H    0.999 --     2 C    0.977
    14   1 H    0.999 --     3 C    0.967
    15   1 H    0.999 --     4 C    0.974
    16   1 H    0.999 --     4 C    0.976
    17   1 H    0.999 --     5 C    0.978
    18   1 H    0.999 --     5 C    0.978
    19   1 H    0.999 --     6 C    0.978
    20   1 H    0.999 --     6 C    0.978
    21   1 H    0.999 --     7 C    0.978
    22   1 H    0.999 --     7 C    0.978
    23   1 H    0.999 --     8 C    0.977
    24   1 H    0.999 --     8 C    0.977
 ---------------------------------------------------------------------------

Topologies differ in total number of bonds
Writing topology from bond orders to xtbtopo.mol

molecular dipole:
                 x           y           z       tot (Debye)
 q only:        0.014      -0.008      -0.009
   full:        0.014      -0.003      -0.008       0.041
molecular quadrupole (traceless):
                xx          xy          yy          xz          yz          zz
 q only:        0.110      -0.081      -0.000      -0.051       0.043      -0.110
  q+dip:       -1.354      -0.009       0.400       0.348      -1.190       0.954
   full:       -0.629      -0.030       0.194       0.155      -0.593       0.435

           -------------------------------------------------
          |               Frequency Printout                |
           -------------------------------------------------
 projected vibrational frequencies (cm⁻¹)
eigval :       -0.00    -0.00     0.00     0.00     0.00     0.00
eigval :       69.39   125.14   212.85   227.09   232.53   325.35
eigval :      359.76   422.31   439.05   456.86   549.44   799.80
eigval :      821.51   838.43   897.76   918.01   932.64   966.73
eigval :      967.25   995.72  1043.32  1072.06  1082.08  1099.64
eigval :     1122.21  1134.74  1144.94  1179.02  1202.63  1236.25
eigval :     1245.64  1251.83  1273.10  1288.38  1318.25  1340.11
eigval :     1347.97  1356.20  1358.84  1363.77  1370.44  1416.01
eigval :     1482.90  1488.51  1491.68  1493.81  1497.18  1504.73
eigval :     1507.77  1511.25  2918.58  2955.51  2957.11  2958.52
eigval :     2962.28  2964.02  2968.75  2971.76  2975.78  2978.98
eigval :     2982.54  2983.25  2988.21  3029.17  3032.24  3044.57
 reduced masses (amu)
   1:  9.09   2: 10.09   3:  9.66   4: 10.34   5:  9.72   6:  9.70   7:  7.06   8:  7.06
   9:  5.61  10:  7.07  11:  4.83  12:  6.36  13:  8.95  14:  8.48  15:  8.41  16:  8.00
  17:  5.80  18:  4.37  19:  4.45  20:  5.59  21:  6.14  22:  6.71  23:  3.78  24:  7.04
  25:  7.64  26:  5.05  27:  4.69  28:  1.80  29:  7.99  30:  6.53  31:  6.19  32:  6.15
  33:  7.52  34:  7.84  35:  4.95  36:  4.28  37:  2.81  38:  3.64  39:  3.42  40:  2.95
  41:  3.47  42:  4.27  43:  4.63  44:  4.92  45:  4.97  46:  5.22  47:  5.73  48:  3.17
  49:  1.87  50:  1.96  51:  2.00  52:  1.91  53:  1.89  54:  1.70  55:  1.94  56:  1.57
  57:  1.74  58:  1.93  59:  1.90  60:  1.90  61:  1.98  62:  1.91  63:  1.74  64:  1.55
  65:  1.50  66:  1.50  67:  1.69  68:  1.59  69:  1.60  70:  1.93  71:  1.72  72:  1.49
 IR intensities (km·mol⁻¹)
   1:  0.00   2:  0.00   3:  0.00   4:  0.00   5:  0.00   6:  0.00   7:  0.01   8:  0.03
   9:  0.00  10:  0.19  11:  0.08  12:  0.05  13:  0.10  14:  0.40  15:  0.35  16:  0.29
  17:  1.37  18:  3.98  19:  0.22  20:  2.38  21:  2.86  22:  1.88  23:  6.22  24:  1.20
  25:  1.40  26:  7.17  27:  0.85  28:  0.35  29:  0.89  30:  0.07  31:  0.05  32:  0.70
  33:  0.00  34:  0.01  35:  0.60  36:  0.93  37:  0.38  38:  1.02  39:  0.58  40:  1.34
  41:  1.09  42:  2.13  43:  0.09  44:  0.60  45:  1.79  46:  0.88  47:  0.03  48:  1.43
  49:  0.03  50:  0.07  51:  0.21  52:  0.22  53:  0.09  54:  1.48  55:  0.34  56:  2.30
  57: 26.63  58: 13.17  59: 19.66  60: 11.74  61: 31.02  62:  3.92  63: 46.06  64:  0.76
  65:  2.12  66:106.27  67:225.88  68:142.63  69: 71.46  70: 60.59  71: 49.65  72: 38.40
 Raman intensities (Ä⁴*amu⁻¹)
   1:  0.00   2:  0.00   3:  0.00   4:  0.00   5:  0.00   6:  0.00   7:  0.00   8:  0.00
   9:  0.00  10:  0.00  11:  0.00  12:  0.00  13:  0.00  14:  0.00  15:  0.00  16:  0.00
  17:  0.00  18:  0.00  19:  0.00  20:  0.00  21:  0.00  22:  0.00  23:  0.00  24:  0.00
  25:  0.00  26:  0.00  27:  0.00  28:  0.00  29:  0.00  30:  0.00  31:  0.00  32:  0.00
  33:  0.00  34:  0.00  35:  0.00  36:  0.00  37:  0.00  38:  0.00  39:  0.00  40:  0.00
  41:  0.00  42:  0.00  43:  0.00  44:  0.00  45:  0.00  46:  0.00  47:  0.00  48:  0.00
  49:  0.00  50:  0.00  51:  0.00  52:  0.00  53:  0.00  54:  0.00  55:  0.00  56:  0.00
  57:  0.00  58:  0.00  59:  0.00  60:  0.00  61:  0.00  62:  0.00  63:  0.00  64:  0.00
  65:  0.00  66:  0.00  67:  0.00  68:  0.00  69:  0.00  70:  0.00  71:  0.00  72:  0.00
 output can be read by thermo (or use thermo option).
 writing <g98.out> molden fake output.
 recommended (thermochemical) frequency scaling factor: 1.0
           -------------------------------------------------
          |             Thermodynamic Functions             |
           -------------------------------------------------

Molecule has no symmetry elements
It seems to be the C1 point group
c1  symmetry found (for desy threshold:  0.10E+00) used in thermo

          ...................................................
          :                      SETUP                      :
          :.................................................:
          :  # frequencies                          66      :
          :  # imaginary freq.                       0      :
          :  linear?                             false      :
          :  only rotor calc.                    false      :
          :  symmetry                               c1      :
          :  rotational number                       1      :
          :  scaling factor                  1.0000000      :
          :  rotor cutoff                   50.0000000 cm⁻¹ :
          :  imag. cutoff                  -20.0000000 cm⁻¹ :
          :.................................................:

    mode    ω/cm⁻¹     T·S(HO)/kcal·mol⁻¹    T·S(FR)/kcal·mol⁻¹   T·S(vib)
   ------------------------------------------------------------------------
       1     69.39    -1.24344 ( 78.77%)    -0.95924 ( 21.23%)    -1.18310
       2    125.14    -0.90025 ( 97.51%)    -0.78466 (  2.49%)    -0.89738
       3    212.85    -0.60199 ( 99.70%)    -0.62736 (  0.30%)    -0.60207
       4    227.09    -0.56704 ( 99.77%)    -0.60818 (  0.23%)    -0.56713
       5    232.53    -0.55435 ( 99.79%)    -0.60116 (  0.21%)    -0.55445
   ------------------------------------------------------------------------

   temp. (K)  partition function   enthalpy   heat capacity  entropy
                                   cal/mol     cal/K/mol   cal/K/mol   J/K/mol
 298.15  VIB   78.9                 3567.200     26.875     20.436
         ROT  0.375E+06              888.752      2.981     28.487
         INT  0.296E+08             4455.952     29.856     48.923
         TR   0.115E+28             1481.254      4.968     40.043
         TOT                        5937.2060    34.8243    88.9661   372.2340

       T/K    H(0)-H(T)+PV         H(T)/Eh          T*S/Eh         G(T)/Eh
   ------------------------------------------------------------------------
    298.15    0.946154E-02    0.233757E+00    0.422706E-01    0.191486E+00
   ------------------------------------------------------------------------

         :::::::::::::::::::::::::::::::::::::::::::::::::::::
         ::                  THERMODYNAMIC                  ::
         :::::::::::::::::::::::::::::::::::::::::::::::::::::
         :: total free energy         -25.125282847976 Eh   ::
         ::.................................................::
         :: total energy              -25.316768729102 Eh   ::
         :: zero point energy           0.224294987339 Eh   ::
         :: G(RRHO) w/o ZPVE           -0.032809106213 Eh   ::
         :: G(RRHO) contrib.            0.191485881126 Eh   ::
         :::::::::::::::::::::::::::::::::::::::::::::::::::::

           -------------------------------------------------
          | TOTAL ENERGY              -25.316768729102 Eh   |
          | TOTAL ENTHALPY            -25.083012201679 Eh   |
          | TOTAL FREE ENERGY         -25.125282847976 Eh   |
          | GRADIENT NORM               0.000067111504 Eh/α |
          | HOMO-LUMO GAP              12.734223660468 eV   |
           -------------------------------------------------

------------------------------------------------------------------------
 * finished run on 2026/09/17 at 00:40:32.414     
------------------------------------------------------------------------
 total:
 * wall-time:     0 d,  0 h,  0 min,  0.386 sec
 *  cpu-time:     0 d,  0 h,  0 min,  1.500 sec
 * ratio c/w:     3.886 speedup
 SCF:
 * wall-time:     0 d,  0 h,  0 min,  0.006 sec
 *  cpu-time:     0 d,  0 h,  0 min,  0.000 sec
 * ratio c/w:     0.000 speedup
 analytical hessian:
 * wall-time:     0 d,  0 h,  0 min,  0.354 sec
 *  cpu-time:     0 d,  0 h,  0 min,  1.438 sec
 * ratio c/w:     4.061 speedup

