27
Coordinates from ORCA-job optfreq E -353.701386530025
  C           3.83850418731612     -0.07012754474892     -0.42691406479975
  C           2.45024015469815     -0.51978053847438      0.02475029362497
  C           1.37644990212481      0.52692869040252     -0.27388492643204
  C          -0.01936004931950      0.20315815018482      0.26913492950824
  C          -0.97007235538402      1.38832167139082      0.05435331093040
  C          -2.37896364920700      1.10573392530795      0.57931700761843
  C          -2.95874407229536     -0.15882624779456     -0.05612884748932
  C          -2.02804730929354     -1.35194368822570      0.16486921126931
  C          -0.61674954403678     -1.06477115358320     -0.35464569857109
  H           4.13672108210851      0.85422685313472      0.08069518863816
  H           3.85540777301671      0.12539865071129     -1.50517333522565
  H           4.59751579563651     -0.82958476437383     -0.21311309384292
  H           2.46156370034133     -0.72757137875582      1.10403510013685
  H           2.20010877885483     -1.46737569444425     -0.46831520185730
  H           1.30993895111976      0.67981854940895     -1.36231231639454
  H           1.70001692073331      1.49043258636049      0.14763987863520
  H           0.06776054014138      0.03502648764162      1.35651455987148
  H          -1.02274464626100      1.60494388942656     -1.02417459770640
  H          -0.55756863136191      2.28553860077116      0.53463886037612
  H          -2.33862914649643      0.97545564185635      1.67082749762116
  H          -3.03367117923860      1.96534695685657      0.38882922052068
  H          -3.08606565722091      0.00536340080330     -1.13641618418107
  H          -3.95531330983853     -0.37041929532296      0.35111277070767
  H          -1.97609614998474     -1.57277744100302      1.24127581359227
  H          -2.43282908967162     -2.24871655191748     -0.32060524290290
  H           0.02951819182709     -1.92879687398208     -0.15938396866205
  H          -0.64889118830856     -0.93500288163087     -1.44820916498549
