16
Coordinates from ORCA-job optfreq E -420.974180719168
  C      -2.193511      0.754498     -0.466848
  C      -1.222540     -0.376770     -0.289726
  O      -1.162313     -1.323419     -1.031473
  C      -0.297580     -0.237663      0.911804
  C       1.099193     -0.736280      0.554553
  C       1.722896      0.160212     -0.485705
  O       1.219083      1.149704     -0.945647
  O       2.935023     -0.270300     -0.850785
  H      -2.679578      0.995521      0.475285
  H      -2.934394      0.509302     -1.222762
  H      -1.624699      1.624653     -0.791651
  H      -0.709543     -0.845462      1.720546
  H      -0.260017      0.801421      1.236515
  H       1.041215     -1.741863      0.132177
  H       1.756110     -0.771290      1.424867
  H       3.310654      0.307734     -1.533561
16
Coordinates from ORCA-job optfreq E -420.975461160587
  C      -2.244717      0.751765     -0.453120
  C      -1.222939     -0.345462     -0.306154
  O      -1.136091     -1.276155     -1.075908
  C      -0.285244     -0.220441      0.895144
  C       1.111618     -0.732159      0.552652
  C       1.756063      0.142998     -0.494629
  O       1.252242      1.124879     -0.989224
  O       2.981210     -0.304912     -0.828187
  H      -2.740216      0.951714      0.502722
  H      -2.980749      0.496814     -1.217983
  H      -1.710114      1.661267     -0.751134
  H      -0.707411     -0.829523      1.704932
  H      -0.245012      0.819041      1.232849
  H       1.053874     -1.748351      0.146971
  H       1.765094     -0.762850      1.431569
  H       3.352393      0.271376     -1.512910
16
Coordinates from ORCA-job optfreq E -420.975737474635
  C      -2.275419      0.745698     -0.440771
  C      -1.220273     -0.322445     -0.314622
  O      -1.111233     -1.236694     -1.105675
  C      -0.274818     -0.203659      0.880584
  C       1.113620     -0.732730      0.546809
  C       1.771088      0.120488     -0.508839
  O       1.277781      1.102871     -1.017453
  O       3.011698     -0.326506     -0.808266
  H      -2.775425      0.915941      0.520731
  H      -3.004023      0.482302     -1.210081
  H      -1.769862      1.680529     -0.716938
  H      -0.707703     -0.803751      1.693775
  H      -0.228281      0.836127      1.221701
  H       1.050425     -1.755754      0.157364
  H       1.765581     -0.762104      1.428290
  H       3.376845      0.259686     -1.489019
16
Coordinates from ORCA-job optfreq E -420.975734854578
  C      -2.296637      0.736684     -0.432151
  C      -1.206508     -0.296590     -0.329654
  O      -1.078253     -1.195408     -1.137397
  C      -0.267634     -0.187786      0.868861
  C       1.116797     -0.726406      0.551455
  C       1.795658      0.122361     -0.492338
  O       1.308887      1.096277     -1.022649
  O       3.023177     -0.358934     -0.809933
  H      -2.797650      0.875466      0.534197
  H      -3.017861      0.461600     -1.203202
  H      -1.826282      1.695174     -0.689256
  H      -0.717392     -0.783466      1.677088
  H      -0.221359      0.849590      1.218966
  H       1.053735     -1.750265      0.163829
  H       1.757055     -0.763124      1.441193
  H       3.374269      0.224828     -1.501420
16
Coordinates from ORCA-job optfreq E -420.975847003636
  C      -2.294565      0.735820     -0.431343
  C      -1.212264     -0.304642     -0.325578
  O      -1.088675     -1.205441     -1.130296
  C      -0.269032     -0.188229      0.867980
  C       1.114075     -0.729539      0.546235
  C       1.791130      0.117987     -0.499929
  O       1.314709      1.104546     -1.013606
  O       3.023506     -0.353130     -0.808150
  H      -2.791701      0.883785      0.534715
  H      -3.019677      0.460598     -1.198427
  H      -1.819015      1.688598     -0.696842
  H      -0.715893     -0.777176      1.682017
  H      -0.219670      0.851199      1.209834
  H       1.047580     -1.752400      0.157846
  H       1.756822     -0.767958      1.433754
  H       3.382672      0.235980     -1.490622
16
Coordinates from ORCA-job optfreq E -420.975860293466
  C      -2.297606      0.732872     -0.428545
  C      -1.211237     -0.303589     -0.327376
  O      -1.080843     -1.196697     -1.138968
  C      -0.268626     -0.185235      0.865628
  C       1.113783     -0.729269      0.546535
  C       1.793178      0.116486     -0.499174
  O       1.322763      1.107176     -1.009299
  O       3.022945     -0.359230     -0.809969
  H      -2.794920      0.875484      0.537893
  H      -3.021672      0.456898     -1.196237
  H      -1.827419      1.688854     -0.691044
  H      -0.718375     -0.769057      1.681659
  H      -0.218096      0.855122      1.204036
  H       1.046836     -1.752260      0.158996
  H       1.755355     -0.767496      1.434824
  H       3.383934      0.229941     -1.491368
16
Coordinates from ORCA-job optfreq E -420.975871091052
  C      -2.311598      0.724135     -0.419054
  C      -1.204976     -0.292599     -0.340016
  O      -1.067365     -1.173921     -1.162059
  C      -0.266180     -0.174392      0.854193
  C       1.113724     -0.728678      0.545076
  C       1.805061      0.112518     -0.495802
  O       1.355655      1.117672     -0.994383
  O       3.027176     -0.379411     -0.810748
  H      -2.797924      0.853536      0.554269
  H      -3.040739      0.437338     -1.177783
  H      -1.866114      1.690542     -0.684483
  H      -0.726904     -0.744652      1.673676
  H      -0.211077      0.867810      1.185508
  H       1.044256     -1.751267      0.157884
  H       1.749429     -0.769478      1.437344
  H       3.397574      0.210847     -1.486030
16
Coordinates from ORCA-job optfreq E -420.975887450872
  C      -2.317250      0.720723     -0.415810
  C      -1.202560     -0.288459     -0.343273
  O      -1.052903     -1.157557     -1.176287
  C      -0.265452     -0.170873      0.852292
  C       1.114377     -0.727140      0.547159
  C       1.808898      0.111542     -0.493946
  O       1.363510      1.118903     -0.992337
  O       3.026186     -0.389710     -0.813745
  H      -2.805163      0.840086      0.558137
  H      -3.043903      0.433693     -1.176979
  H      -1.879442      1.692561     -0.674873
  H      -0.729264     -0.737974      1.672374
  H      -0.209776      0.872163      1.181535
  H       1.045536     -1.750661      0.162283
  H       1.748368     -0.765560      1.440842
  H       3.398838      0.198262     -1.489784
16
Coordinates from ORCA-job optfreq E -420.975900973410
  C      -2.329771      0.713689     -0.409233
  C      -1.197607     -0.278088     -0.351434
  O      -1.030787     -1.128698     -1.200339
  C      -0.263782     -0.162983      0.846902
  C       1.115161     -0.724542      0.548921
  C       1.817985      0.109304     -0.491208
  O       1.384609      1.124871     -0.984311
  O       3.026049     -0.409962     -0.818043
  H      -2.815146      0.816880      0.567974
  H      -3.055365      0.422059     -1.169861
  H      -1.909401      1.694935     -0.662747
  H      -0.733330     -0.724331      1.667855
  H      -0.205962      0.881439      1.172419
  H       1.045926     -1.749233      0.167333
  H       1.745251     -0.760600      1.445639
  H       3.406170      0.175259     -1.492278
16
Coordinates from ORCA-job optfreq E -420.975914167725
  C      -2.348995      0.701824     -0.399236
  C      -1.190156     -0.261125     -0.364323
  O      -0.999896     -1.084391     -1.235111
  C      -0.261264     -0.150026      0.837882
  C       1.115672     -0.720654      0.550358
  C       1.832553      0.105881     -0.486922
  O       1.422211      1.137486     -0.966563
  O       3.024749     -0.441805     -0.825737
  H      -2.827365      0.782707      0.583508
  H      -3.074339      0.400494     -1.156472
  H      -1.956726      1.696115     -0.647886
  H      -0.739242     -0.702307      1.660233
  H      -0.199425      0.896349      1.157520
  H       1.044825     -1.746688      0.173190
  H       1.739292     -0.754448      1.451920
  H       3.418107      0.140588     -1.494772
16
Coordinates from ORCA-job optfreq E -420.975924096644
  C      -2.368952      0.687797     -0.389247
  C      -1.182390     -0.242241     -0.377611
  O      -0.968113     -1.035635     -1.270295
  C      -0.258746     -0.135424      0.828360
  C       1.115579     -0.716217      0.551286
  C       1.848504      0.102703     -0.481518
  O       1.468122      1.154874     -0.940376
  O       3.020125     -0.477406     -0.837482
  H      -2.838476      0.747006      0.599100
  H      -3.093782      0.373951     -1.141924
  H      -2.007559      1.694627     -0.634737
  H      -0.745032     -0.678193      1.652143
  H      -0.192158      0.912814      1.141869
  H       1.042260     -1.743417      0.178587
  H       1.731840     -0.748515      1.458210
  H       3.428779      0.103276     -1.498775
16
Coordinates from ORCA-job optfreq E -420.975929215056
  C      -2.374847      0.682677     -0.387258
  C      -1.179658     -0.236150     -0.381287
  O      -0.956852     -1.020017     -1.280282
  C      -0.258355     -0.130823      0.826279
  C       1.115339     -0.714346      0.551840
  C       1.853703      0.102708     -0.478591
  O       1.487699      1.165840     -0.923230
  O       3.014242     -0.491414     -0.846948
  H      -2.841373      0.737229      0.602604
  H      -3.099216      0.363198     -1.137960
  H      -2.023034      1.692564     -0.634025
  H      -0.746217     -0.671778      1.650171
  H      -0.190467      0.917847      1.138270
  H       1.041325     -1.741983      0.180960
  H       1.728913     -0.745804      1.460745
  H       3.428800      0.090249     -1.503697
16
Coordinates from ORCA-job optfreq E -420.975932889029
  C      -2.375263      0.680840     -0.388243
  C      -1.177448     -0.233918     -0.382241
  O      -0.949913     -1.013753     -1.283572
  C      -0.258797     -0.130149      0.827155
  C       1.115376     -0.713308      0.553545
  C       1.854170      0.103086     -0.476645
  O       1.496795      1.173806     -0.909461
  O       3.006494     -0.498919     -0.857317
  H      -2.841881      0.735164      0.601412
  H      -3.098362      0.358717     -1.138948
  H      -2.026042      1.691281     -0.636059
  H      -0.746909     -0.672558      1.649798
  H      -0.191306      0.918094      1.140430
  H       1.042532     -1.741908      0.185682
  H       1.728084     -0.741469      1.463255
  H       3.422471      0.084994     -1.511200
16
Coordinates from ORCA-job optfreq E -420.975934506319
  C      -2.374440      0.680284     -0.389243
  C      -1.175373     -0.232519     -0.383023
  O      -0.944511     -1.009117     -1.286318
  C      -0.259226     -0.130565      0.828222
  C       1.115777     -0.712637      0.555717
  C       1.853314      0.102850     -0.475783
  O       1.499554      1.176983     -0.903026
  O       3.000921     -0.503137     -0.864297
  H      -2.842399      0.733312      0.599786
  H      -3.095928      0.357807     -1.141310
  H      -2.026338      1.691438     -0.635628
  H      -0.748267     -0.674749      1.649116
  H      -0.192639      0.917020      1.143710
  H       1.044963     -1.742508      0.191440
  H       1.728289     -0.736417      1.465755
  H       3.416305      0.081954     -1.517528
16
Coordinates from ORCA-job optfreq E -420.975935385563
  C      -2.371596      0.681683     -0.391065
  C      -1.174363     -0.233469     -0.382485
  O      -0.943306     -1.010680     -1.285226
  C      -0.259861     -0.132762      0.830106
  C       1.116365     -0.712452      0.557735
  C       1.850776      0.102949     -0.475956
  O       1.495351      1.176976     -0.902385
  O       2.997354     -0.502645     -0.868209
  H      -2.842075      0.734976      0.596795
  H      -3.091729      0.361144     -1.145275
  H      -2.020918      1.692452     -0.635489
  H      -0.749146     -0.679756      1.649017
  H      -0.194852      0.914002      1.148535
  H       1.048120     -1.743511      0.196495
  H       1.729552     -0.731945      1.467454
  H       3.410328      0.083035     -1.522457
16
Coordinates from ORCA-job optfreq E -420.975935581506
  C      -2.371950      0.681267     -0.390901
  C      -1.173515     -0.232525     -0.383294
  O      -0.941033     -1.007892     -1.287242
  C      -0.259822     -0.132462      0.829937
  C       1.116615     -0.712051      0.558513
  C       1.851000      0.102693     -0.475840
  O       1.496508      1.177371     -0.901555
  O       2.996158     -0.504559     -0.869713
  H      -2.842993      0.732331      0.596840
  H      -3.091393      0.361131     -1.145968
  H      -2.022566      1.692962     -0.633452
  H      -0.750075     -0.679646      1.648193
  H      -0.195063      0.914131      1.149035
  H       1.049234     -1.743654      0.198722
  H       1.729566     -0.729863      1.468458
  H       3.409329      0.080765     -1.524144
