16
Coordinates from ORCA-job optfreq E -420.975935581506
  C          -2.37194959720315      0.68126714599188     -0.39090087167006
  C          -1.17351475611862     -0.23252541265822     -0.38329434107473
  O          -0.94103322667246     -1.00789240147155     -1.28724202465870
  C          -0.25982221133848     -0.13246187966352      0.82993697361883
  C           1.11661530619834     -0.71205129506141      0.55851283784807
  C           1.85100039962919      0.10269345926652     -0.47583962873348
  O           1.49650767654201      1.17737122943315     -0.90155543169974
  O           2.99615790328151     -0.50455899018316     -0.86971336345609
  H          -2.84299304957675      0.73233082638822      0.59684010270775
  H          -3.09139268836927      0.36113051521070     -1.14596758852756
  H          -2.02256613751598      1.69296239297868     -0.63345157108457
  H          -0.75007452755935     -0.67964596243282      1.64819289886355
  H          -0.19506279859020      0.91413125279191      1.14903500071457
  H           1.04923357528146     -1.74365362756632      0.19872187946419
  H           1.72956633820165     -0.72986326564739      1.46845845466445
  H           3.40932879381024      0.08076501262361     -1.52414432697655
