      -----------------------------------------------------------      
     |                   =====================                   |     
     |                           x T B                           |     
     |                   =====================                   |     
     |                         S. Grimme                         |     
     |          Mulliken Center for Theoretical Chemistry        |     
     |                    University of Bonn                     |     
      -----------------------------------------------------------      

   * xtb version 6.7.1pre (5071a88) compiled by 'Marcel@Raven' on 2024-07-23

   xtb is free software: you can redistribute it and/or modify it under
   the terms of the GNU Lesser General Public License as published by
   the Free Software Foundation, either version 3 of the License, or
   (at your option) any later version.
   
   xtb is distributed in the hope that it will be useful,
   but WITHOUT ANY WARRANTY; without even the implied warranty of
   MERCHANTABILITY or FITNESS FOR A PARTICULAR PURPOSE.  See the
   GNU Lesser General Public License for more details.
   
   Cite this work as:
   * C. Bannwarth, E. Caldeweyher, S. Ehlert, A. Hansen, P. Pracht,
     J. Seibert, S. Spicher, S. Grimme, WIREs Comput. Mol. Sci., 2020, 11,
     e01493. DOI: 10.1002/wcms.1493
   
   for GFN2-xTB:
   * C. Bannwarth, S. Ehlert and S. Grimme., J. Chem. Theory Comput., 2019,
     15, 1652-1671. DOI: 10.1021/acs.jctc.8b01176
   for GFN1-xTB:
   * S. Grimme, C. Bannwarth, P. Shushkov, J. Chem. Theory Comput., 2017,
     13, 1989-2009. DOI: 10.1021/acs.jctc.7b00118
   for GFN0-xTB:
   * P. Pracht, E. Caldeweyher, S. Ehlert, S. Grimme, ChemRxiv, 2019, preprint.
     DOI: 10.26434/chemrxiv.8326202.v1
   for GFN-FF:
   * S. Spicher and S. Grimme, Angew. Chem. Int. Ed., 2020, 59, 15665-15673.
     DOI: 10.1002/anie.202004239
   
   for ALPB and GBSA implicit solvation:
   * S. Ehlert, M. Stahn, S. Spicher, S. Grimme, J. Chem. Theory Comput.,
     2021, 17, 4250-4261. DOI: 10.1021/acs.jctc.1c00471
   
   for ddCOSMO and CPCM-X implicit solvation:
   * M. Stahn, S. Ehlert, S. Grimme, J. Phys. Chem. A,
     2023, XX, XXXX-XXXX. DOI: 10.1021/acs.jpca.3c04382
   
   for DFT-D4:
   * E. Caldeweyher, C. Bannwarth and S. Grimme, J. Chem. Phys., 2017,
     147, 034112. DOI: 10.1063/1.4993215
   * E. Caldeweyher, S. Ehlert, A. Hansen, H. Neugebauer, S. Spicher,
     C. Bannwarth and S. Grimme, J. Chem. Phys., 2019, 150, 154122.
     DOI: 10.1063/1.5090222
   * E. Caldeweyher, J.-M. Mewes, S. Ehlert and S. Grimme, Phys. Chem. Chem. Phys.
     2020, 22, 8499-8512. DOI: 10.1039/D0CP00502A
   
   for sTDA-xTB:
   * S. Grimme and C. Bannwarth, J. Chem. Phys., 2016, 145, 054103.
     DOI: 10.1063/1.4959605
   
   in the mass-spec context:
   * V. Asgeirsson, C. Bauer and S. Grimme, Chem. Sci., 2017, 8, 4879.
     DOI: 10.1039/c7sc00601b
   * J. Koopman and S. Grimme, ACS Omega 2019, 4, 12, 15120-15133.
     DOI: 10.1021/acsomega.9b02011
   
   for metadynamics refer to:
   * S. Grimme, J. Chem. Theory Comput., 2019, 155, 2847-2862
     DOI: 10.1021/acs.jctc.9b00143
   
   for SPH calculations refer to:
   * S. Spicher and S. Grimme, J. Chem. Theory Comput., 2021, 17, 1701-1714
     DOI: 10.1021/acs.jctc.0c01306
   
   for ONIOM refer to:
   * C. Plett, A. Katbashev, S. Ehlert, S. Grimme, M. Bursch,
     Phys. Chem. Chem. Phys., 2023, 25, 17860-17868. DOI: 10.1039/D3CP02178E
   
   for DIPRO refer to:
   * J. Kohn, N. Gildemeister, S. Grimme, D. Fazzi, A. Hansen,
     J. Chem. Phys., 2023, just accepted.
   
   for PTB refer to:
   * S. Grimme, M. Mueller, A. Hansen, J. Chem. Phys., 2023, 158, 124111.
     DOI: 10.1063/5.0137838
   
   with help from (in alphabetical order)
   P. Atkinson, C. Bannwarth, F. Bohle, G. Brandenburg, E. Caldeweyher
   M. Checinski, S. Dohm, S. Ehlert, S. Ehrlich, I. Gerasimov, C. Hölzer
   A. Katbashev, J. Kohn, J. Koopman, C. Lavigne, S. Lehtola, F. März, M. Müller,
   F. Musil, H. Neugebauer, J. Pisarek, C. Plett, P. Pracht, F. Pultar,
   J. Seibert, P. Shushkov, S. Spicher, M. Stahn, M. Steiner, T. Strunk,
   J. Stückrath, T. Rose, and J. Unsleber
   
 * started run on 2026/09/17 at 00:40:20.518     
   ID    Z sym.   atoms
    1    6 C      1, 2, 4-6, 8
    2    8 O      3, 7, 9
    3    1 H      10-15

           -------------------------------------------------
          |                Calculation Setup                |
           -------------------------------------------------

          program call               : C:\ORCA_6.1.1\xtb-6.7.1pre\xtb.exe input.xyz --gfn 2 --chrg 0 --uhf 0 --opt tight --json
          coordinate file            : input.xyz
          omp threads                :                     4


           -------------------------------------------------
          |                 G F N 2 - x T B                 |
           -------------------------------------------------

        Reference                      10.1021/acs.jctc.8b01176
      * Hamiltonian:
        H0-scaling (s, p, d)           1.850000    2.230000    2.230000
        zeta-weighting                 0.500000
      * Dispersion:
        s8                             2.700000
        a1                             0.520000
        a2                             5.000000
        s9                             5.000000
      * Repulsion:
        kExp                           1.500000    1.000000
        rExp                           1.000000
      * Coulomb:
        alpha                          2.000000
        third order                    shell-resolved
        anisotropic                    true
        a3                             3.000000
        a5                             4.000000
        cn-shift                       1.200000
        cn-exp                         4.000000
        max-rad                        5.000000


          ...................................................
          :                      SETUP                      :
          :.................................................:
          :  # basis functions                  42          :
          :  # atomic orbitals                  42          :
          :  # shells                           24          :
          :  # electrons                        48          :
          :  max. iterations                   250          :
          :  Hamiltonian                  GFN2-xTB          :
          :  restarted?                      false          :
          :  GBSA solvation                  false          :
          :  PC potential                    false          :
          :  electronic temp.          300.0000000     K    :
          :  accuracy                    1.0000000          :
          :  -> integral cutoff          0.2500000E+02      :
          :  -> integral neglect         0.1000000E-07      :
          :  -> SCF convergence          0.1000000E-05 Eh   :
          :  -> wf. convergence          0.1000000E-03 e    :
          :  Broyden damping             0.4000000          :
          :  net charge                          0          :
          :  unpaired electrons                  0          :
          ...................................................

 iter      E             dE          RMSdq      gap      omega  full diag
   1    -28.3224008 -0.283224E+02  0.491E+00    3.23       0.0  T
   2    -28.3527762 -0.303754E-01  0.279E+00    2.74       1.0  T
   3    -28.3477030  0.507324E-02  0.155E+00    3.08       1.0  T
   4    -28.3614073 -0.137043E-01  0.332E-01    2.88       1.0  T
   5    -28.3621393 -0.731943E-03  0.114E-01    2.88       1.0  T
   6    -28.3622204 -0.810984E-04  0.532E-02    2.88       1.0  T
   7    -28.3622314 -0.110238E-04  0.261E-02    2.88       1.0  T
   8    -28.3622336 -0.224781E-05  0.121E-02    2.88       2.1  T
   9    -28.3622345 -0.871641E-06  0.244E-03    2.88      10.6  T
  10    -28.3622345 -0.115099E-07  0.118E-03    2.88      21.9  T
  11    -28.3622345 -0.537365E-08  0.394E-04    2.88      65.6  T
  12    -28.3622345 -0.803027E-09  0.162E-04    2.88     159.6  T

   *** convergence criteria satisfied after 12 iterations ***

         #    Occupation            Energy/Eh            Energy/eV
      -------------------------------------------------------------
         1        2.0000           -0.7698389             -20.9484
       ...           ...                  ...                  ...
        18        2.0000           -0.5030943             -13.6899
        19        2.0000           -0.4990052             -13.5786
        20        2.0000           -0.4853255             -13.2064
        21        2.0000           -0.4588826             -12.4868
        22        2.0000           -0.4376054             -11.9078
        23        2.0000           -0.4228616             -11.5066
        24        2.0000           -0.4127966             -11.2328 (HOMO)
        25                         -0.3068673              -8.3503 (LUMO)
        26                         -0.2247391              -6.1155
        27                         -0.1703276              -4.6348
        28                          0.0104248               0.2837
        29                          0.0510826               1.3900
       ...                                ...                  ...
        42                          0.6580728              17.9071
      -------------------------------------------------------------
                  HL-Gap            0.1059293 Eh            2.8825 eV
             Fermi-level           -0.3598320 Eh           -9.7915 eV

 SCC (total)                   0 d,  0 h,  0 min,  0.019 sec
 SCC setup                      ...        0 min,  0.000 sec (  0.000%)
 Dispersion                     ...        0 min,  0.000 sec (  0.000%)
 classical contributions        ...        0 min,  0.000 sec (  0.000%)
 integral evaluation            ...        0 min,  0.001 sec (  5.263%)
 iterations                     ...        0 min,  0.017 sec ( 89.473%)
 molecular gradient             ...        0 min,  0.001 sec (  5.264%)
 printout                       ...        0 min,  0.000 sec (  0.000%)

         :::::::::::::::::::::::::::::::::::::::::::::::::::::
         ::                     SUMMARY                     ::
         :::::::::::::::::::::::::::::::::::::::::::::::::::::
         :: total energy             -28.061454167861 Eh    ::
         :: gradient norm              0.055976121256 Eh/a0 ::
         :: HOMO-LUMO gap              2.882482193678 eV    ::
         ::.................................................::
         :: SCC energy               -28.362218419771 Eh    ::
         :: -> isotropic ES            0.055551394584 Eh    ::
         :: -> anisotropic ES          0.002124651287 Eh    ::
         :: -> anisotropic XC          0.003255577323 Eh    ::
         :: -> dispersion             -0.010424465520 Eh    ::
         :: repulsion energy           0.300764251910 Eh    ::
         :: add. restraining           0.000000000000 Eh    ::
         :: total charge              -0.000000000000 e     ::
         :::::::::::::::::::::::::::::::::::::::::::::::::::::

      ----------------------------------------------------------- 
     |                   =====================                   |
     |                        A N C O P T                        |
     |                   =====================                   |
     |               Approximate Normal Coordinate               |
     |                Rational Function Optimizer                |
      ----------------------------------------------------------- 
      ----------------------------------------------------------- 
     |                   =====================                   |
     |                        A N C O P T                        |
     |                   =====================                   |
     |               Approximate Normal Coordinate               |
     |                Rational Function Optimizer                |
      ----------------------------------------------------------- 

          ...................................................
          :                      SETUP                      :
          :.................................................:
          :   optimization level             tight          :
          :   max. optcycles                   200          :
          :   ANC micro-cycles                  20          :
          :   degrees of freedom                39          :
          :.................................................:
          :   RF solver                   davidson          :
          :   write xtbopt.log                true          :
          :   linear?                        false          :
          :   energy convergence         0.1000000E-05 Eh   :
          :   grad. convergence          0.8000000E-03 Eh/α :
          :   maxmium RF displ.          1.0000000          :
          :   Hlow (freq-cutoff)         0.1000000E-01      :
          :   Hmax (freq-cutoff)         5.0000000          :
          :   S6 in model hess.         20.0000000          :
          ...................................................

generating ANC from exact Hessian ...
Using Lindh-Hessian (1995)
 Shifting diagonal of input Hessian by   6.079221124533448E-003
 Lowest  eigenvalues of input Hessian
    0.000000    0.000000    0.000000    0.000000    0.000000    0.000000
    0.010000    0.012437    0.016734    0.018106    0.020542    0.029446
    0.041480    0.046423    0.063104    0.070510    0.078760    0.088610
 Highest eigenvalues
    1.455554    1.720278    1.792035    1.893328    1.948299    2.210606
 

........................................................................
.............................. CYCLE    1 ..............................
........................................................................

 iter      E             dE          RMSdq      gap      omega  full diag
   1    -28.3622345 -0.283622E+02  0.409E-05    2.88       0.0  T
   2    -28.3622345 -0.180123E-11  0.254E-05    2.88    1017.3  T
   3    -28.3622345 -0.415668E-12  0.797E-06    2.88    3240.3  T
     SCC iter.                  ...        0 min,  0.002 sec
     gradient                   ...        0 min,  0.001 sec
 * total energy  :   -28.0614542 Eh     change       -0.7282708E-10 Eh
   gradient norm :     0.0559775 Eh/α   predicted     0.0000000E+00 (-100.00%)
   displ. norm   :     0.1933250 α      lambda       -0.3756549E-02
   maximum displ.:     0.1023987 α      in ANC's #3, #6, #10, ...

........................................................................
.............................. CYCLE    2 ..............................
........................................................................

 iter      E             dE          RMSdq      gap      omega  full diag
   1    -28.3760168 -0.283760E+02  0.168E-01    2.95       0.0  T
   2    -28.3760956 -0.788329E-04  0.965E-02    2.98       1.0  T
   3    -28.3760986 -0.294863E-05  0.590E-02    2.97       1.0  T
   4    -28.3761136 -0.150500E-04  0.194E-02    2.97       1.3  T
   5    -28.3761167 -0.305271E-05  0.481E-03    2.97       5.4  T
   6    -28.3761167 -0.392739E-07  0.292E-03    2.97       8.9  T
   7    -28.3761168 -0.559922E-07  0.116E-03    2.97      22.3  T
   8    -28.3761168 -0.262811E-08  0.433E-04    2.97      59.6  T
   9    -28.3761168 -0.582986E-09  0.125E-04    2.97     207.0  T
     SCC iter.                  ...        0 min,  0.003 sec
     gradient                   ...        0 min,  0.001 sec
 * total energy  :   -28.0638947 Eh     change       -0.2440539E-02 Eh
   gradient norm :     0.0221273 Eh/α   predicted    -0.1948474E-02 ( -20.16%)
   displ. norm   :     0.1385623 α      lambda       -0.8285653E-03
   maximum displ.:     0.0773123 α      in ANC's #2, #3, #6, ...

........................................................................
.............................. CYCLE    3 ..............................
........................................................................

 iter      E             dE          RMSdq      gap      omega  full diag
   1    -28.3803157 -0.283803E+02  0.987E-02    3.02       0.0  T
   2    -28.3803488 -0.330858E-04  0.545E-02    3.03       1.0  T
   3    -28.3803516 -0.278613E-05  0.322E-02    3.02       1.0  T
   4    -28.3803549 -0.335104E-05  0.104E-02    3.02       2.5  T
   5    -28.3803559 -0.975148E-06  0.255E-03    3.02      10.1  T
   6    -28.3803559 -0.116527E-07  0.110E-03    3.02      23.6  T
   7    -28.3803559 -0.534723E-08  0.602E-04    3.02      42.9  T
   8    -28.3803559 -0.154741E-08  0.233E-04    3.02     111.0  T
     SCC iter.                  ...        0 min,  0.004 sec
     gradient                   ...        0 min,  0.001 sec
 * total energy  :   -28.0643997 Eh     change       -0.5049967E-03 Eh
   gradient norm :     0.0079299 Eh/α   predicted    -0.4222389E-03 ( -16.39%)
   displ. norm   :     0.0977701 α      lambda       -0.1949084E-03
   maximum displ.:     0.0624312 α      in ANC's #3, #2, #6, ...

........................................................................
.............................. CYCLE    4 ..............................
........................................................................

 iter      E             dE          RMSdq      gap      omega  full diag
   1    -28.3799291 -0.283799E+02  0.627E-02    3.03       0.0  T
   2    -28.3799344 -0.533684E-05  0.380E-02    3.04       1.0  T
   3    -28.3799331  0.131730E-05  0.197E-02    3.04       1.3  T
   4    -28.3799359 -0.277262E-05  0.458E-03    3.03       5.6  T
   5    -28.3799361 -0.197064E-06  0.128E-03    3.04      20.2  T
   6    -28.3799361 -0.371133E-08  0.735E-04    3.04      35.1  T
   7    -28.3799361 -0.245928E-08  0.323E-04    3.04      79.9  T
     SCC iter.                  ...        0 min,  0.002 sec
     gradient                   ...        0 min,  0.000 sec
 * total energy  :   -28.0645182 Eh     change       -0.1184679E-03 Eh
   gradient norm :     0.0054161 Eh/α   predicted    -0.9838601E-04 ( -16.95%)
   displ. norm   :     0.1066004 α      lambda       -0.1320816E-03
   maximum displ.:     0.0781947 α      in ANC's #2, #3, #6, ...

........................................................................
.............................. CYCLE    5 ..............................
........................................................................

 iter      E             dE          RMSdq      gap      omega  full diag
   1    -28.3787383 -0.283787E+02  0.709E-02    3.04       0.0  T
   2    -28.3787407 -0.237578E-05  0.431E-02    3.04       1.0  T
   3    -28.3787371  0.358970E-05  0.200E-02    3.04       1.3  T
   4    -28.3787417 -0.457774E-05  0.304E-03    3.04       8.5  T
   5    -28.3787417 -0.716172E-07  0.125E-03    3.04      20.7  T
   6    -28.3787417 -0.435080E-08  0.719E-04    3.04      35.9  T
   7    -28.3787417 -0.171342E-08  0.271E-04    3.04      95.3  T
     SCC iter.                  ...        0 min,  0.001 sec
     gradient                   ...        0 min,  0.001 sec
 * total energy  :   -28.0645691 Eh     change       -0.5091445E-04 Eh
   gradient norm :     0.0056126 Eh/α   predicted    -0.6679188E-04 (  31.18%)
   displ. norm   :     0.0360068 α      lambda       -0.5318889E-04
   maximum displ.:     0.0248683 α      in ANC's #2, #1, #3, ...

........................................................................
.............................. CYCLE    6 ..............................
........................................................................

 iter      E             dE          RMSdq      gap      omega  full diag
   1    -28.3788071 -0.283788E+02  0.340E-02    3.03       0.0  T
   2    -28.3788075 -0.394820E-06  0.200E-02    3.03       1.3  T
   3    -28.3788072  0.276116E-06  0.576E-03    3.03       4.5  T
   4    -28.3788075 -0.334945E-06  0.141E-03    3.03      18.3  T
   5    -28.3788075 -0.223853E-07  0.452E-04    3.03      57.1  T
   6    -28.3788075 -0.725748E-10  0.221E-04    3.03     116.7  T
     SCC iter.                  ...        0 min,  0.003 sec
     gradient                   ...        0 min,  0.000 sec
 * total energy  :   -28.0646048 Eh     change       -0.3571313E-04 Eh
   gradient norm :     0.0030071 Eh/α   predicted    -0.2662930E-04 ( -25.44%)
   displ. norm   :     0.0461360 α      lambda       -0.2532105E-04
   maximum displ.:     0.0357026 α      in ANC's #2, #3, #1, ...

........................................................................
.............................. CYCLE    7 ..............................
........................................................................

 iter      E             dE          RMSdq      gap      omega  full diag
   1    -28.3790994 -0.283791E+02  0.281E-02    3.03       0.0  T
   2    -28.3790998 -0.421909E-06  0.165E-02    3.03       1.6  T
   3    -28.3790996  0.200779E-06  0.565E-03    3.03       4.6  T
   4    -28.3790999 -0.263355E-06  0.147E-03    3.03      17.5  T
   5    -28.3790999 -0.236887E-07  0.499E-04    3.03      51.8  T
   6    -28.3790999 -0.396838E-10  0.244E-04    3.03     105.9  T
     SCC iter.                  ...        0 min,  0.002 sec
     gradient                   ...        0 min,  0.001 sec
 * total energy  :   -28.0646217 Eh     change       -0.1693461E-04 Eh
   gradient norm :     0.0013470 Eh/α   predicted    -0.1268771E-04 ( -25.08%)
   displ. norm   :     0.0509189 α      lambda       -0.9058507E-05
   maximum displ.:     0.0401208 α      in ANC's #2, #3, #1, ...

........................................................................
.............................. CYCLE    8 ..............................
........................................................................

 iter      E             dE          RMSdq      gap      omega  full diag
   1    -28.3794860 -0.283795E+02  0.275E-02    3.03       0.0  T
   2    -28.3794861 -0.178790E-06  0.164E-02    3.02       1.6  T
   3    -28.3794860  0.109577E-06  0.393E-03    3.03       6.6  T
   4    -28.3794862 -0.149409E-06  0.118E-03    3.03      21.8  T
   5    -28.3794862 -0.112328E-07  0.557E-04    3.03      46.4  T
   6    -28.3794862 -0.166853E-09  0.170E-04    3.03     151.8  T
     SCC iter.                  ...        0 min,  0.002 sec
     gradient                   ...        0 min,  0.001 sec
 * total energy  :   -28.0646285 Eh     change       -0.6737589E-05 Eh
   gradient norm :     0.0009422 Eh/α   predicted    -0.4535704E-05 ( -32.68%)
   displ. norm   :     0.0073204 α      lambda       -0.1531954E-05
   maximum displ.:     0.0036098 α      in ANC's #6, #7, #5, ...

........................................................................
.............................. CYCLE    9 ..............................
........................................................................

 iter      E             dE          RMSdq      gap      omega  full diag
   1    -28.3794998 -0.283795E+02  0.766E-03    3.03       0.0  T
   2    -28.3794998 -0.395253E-07  0.452E-03    3.03       5.7  T
   3    -28.3794998  0.242528E-07  0.187E-03    3.03      13.8  T
   4    -28.3794998 -0.334281E-07  0.364E-04    3.03      71.0  T
   5    -28.3794998 -0.151514E-08  0.123E-04    3.03     210.5  T
     SCC iter.                  ...        0 min,  0.001 sec
     gradient                   ...        0 min,  0.002 sec
 * total energy  :   -28.0646300 Eh     change       -0.1551626E-05 Eh
   gradient norm :     0.0003243 Eh/α   predicted    -0.7652910E-06 ( -50.68%)
   displ. norm   :     0.0089630 α      lambda       -0.8016583E-06
   maximum displ.:     0.0044014 α      in ANC's #8, #6, #5, ...

........................................................................
.............................. CYCLE   10 ..............................
........................................................................

 iter      E             dE          RMSdq      gap      omega  full diag
   1    -28.3794210 -0.283794E+02  0.775E-03    3.03       0.0  T
   2    -28.3794210 -0.101850E-07  0.466E-03    3.03       5.5  T
   3    -28.3794210  0.178120E-07  0.132E-03    3.03      19.6  T
   4    -28.3794210 -0.225702E-07  0.241E-04    3.03     107.0  T
   5    -28.3794210 -0.200743E-09  0.132E-04    3.03     196.1  T
     SCC iter.                  ...        0 min,  0.002 sec
     gradient                   ...        0 min,  0.002 sec
 * total energy  :   -28.0646306 Eh     change       -0.6184907E-06 Eh
   gradient norm :     0.0003288 Eh/α   predicted    -0.3992395E-06 ( -35.45%)
   displ. norm   :     0.0053216 α      lambda       -0.2191798E-06
   maximum displ.:     0.0032777 α      in ANC's #2, #3, #1, ...

   *** GEOMETRY OPTIMIZATION CONVERGED AFTER 10 ITERATIONS ***

------------------------------------------------------------------------
 total energy gain   :        -0.0031765 Eh       -1.9933 kcal/mol
 total RMSD          :         0.1537208 a0        0.0813 Å
 total power (kW/mol):        -0.8339831 (step)  -56.7335 (real)
------------------------------------------------------------------------

 ANCopt (total)                0 d,  0 h,  0 min,  0.147 sec
 optimizer setup                ...        0 min,  0.000 sec (  0.000%)
 model hessian                  ...        0 min,  0.028 sec ( 19.048%)
 ANC generation                 ...        0 min,  0.000 sec (  0.000%)
 coordinate transformation      ...        0 min,  0.000 sec (  0.000%)
 single point calculation       ...        0 min,  0.036 sec ( 24.490%)
 optimization log               ...        0 min,  0.034 sec ( 23.129%)
 hessian update                 ...        0 min,  0.000 sec (  0.000%)
 rational function              ...        0 min,  0.046 sec ( 31.293%)

================
 final structure:
================
15
 xtb: 6.7.1pre (5071a88)
C            0.22377397626451       -1.32529578162429        0.58151063034878
C           -0.66478989170509       -0.41798777023210        0.06208359981762
O           -0.01018953530480        0.62981695790465       -0.46199450169791
C            1.31846105808330        0.40984459735561       -0.28879224070151
C            1.50477465647237       -0.79614517041462        0.35393373190006
C            2.26152568095534        1.39642348342586       -0.76678181697037
O            3.46164517274962        1.31101183110340       -0.67730185130094
C           -2.16174888214981       -0.40905501338470        0.01549218486059
O           -2.72005937409689        0.59664048020205        0.82648114271699
H           -0.02017994617817       -2.24971965496283        1.06274320987160
H            2.44989309747531       -1.22256738239057        0.62011990089418
H            1.77115368471948        2.26866713616212       -1.24058213414941
H           -2.54161881949524       -1.35616812413786        0.40194776370254
H           -2.49033015976233       -0.28913204373872       -1.02866888405772
H           -2.38230971802758        1.45366545473196        0.53980826476547
 
 Bond Distances (Angstroems)
 ---------------------------
C1-C2=1.3721         C1-C5=1.4045         C1-H10=1.0704        C2-C1=1.3721         C2-O3=1.3420         C2-C8=1.4977         
O3-C2=1.3420         O3-C4=1.3578         C4-O3=1.3578         C4-C5=1.3792         C4-C6=1.4461         C5-C1=1.4045         
C5-C4=1.3792         C5-H11=1.0705        C6-C4=1.4461         C6-O7=1.2065         C6-H12=1.1071        O7-C6=1.2065         
C8-C2=1.4977         C8-O9=1.4074         C8-H13=1.0912        C8-H14=1.1012        O9-C8=1.4074         O9-H15=0.9648        
H10-C1=1.0704        H11-C5=1.0705        H12-C6=1.1071        H13-C8=1.0912        H14-C8=1.1012        H15-O9=0.9648        
 C  H  Rav=1.0881 sigma=0.0153  Rmin=1.0704  Rmax=1.1071     5
 C  C  Rav=1.4199 sigma=0.0467  Rmin=1.3721  Rmax=1.4977     5
 O  H  Rav=0.9648 sigma=0.0000  Rmin=0.9648  Rmax=0.9648     1
 O  C  Rav=1.3284 sigma=0.0744  Rmin=1.2065  Rmax=1.4074     4
 
 selected bond angles (degree)
 --------------------
C5-C1-C2=106.27                H10-C1-C2=126.42               H10-C1-C5=127.31               O3-C2-C1=110.38                
C8-C2-C1=131.53                C8-C2-O3=118.08                C4-O3-C2=107.52                C5-C4-O3=109.47                
C6-C4-O3=119.04                C6-C4-C5=131.49                C4-C5-C1=106.36                H11-C5-C1=127.94               
H11-C5-C4=125.69               O7-C6-C4=125.16                H12-C6-C4=112.96               H12-C6-O7=121.88               
O9-C8-C2=112.51                H13-C8-C2=109.38               H13-C8-O9=106.14               H14-C8-C2=109.17               
H14-C8-O9=110.50               H14-C8-H13=109.05              H15-O9-C8=108.95               
 
 selected dihedral angles (degree)
 ---------------------------------
O3-C2-C1-C5=359.78            O3-C2-C1-H10=179.78           C8-C2-C1-C5=180.94            C8-C2-C1-H10=  0.93           
C4-O3-C2-C1=  0.11            C4-O3-C2-C8=179.13            C5-C4-O3-C2=  0.04            C6-C4-O3-C2=180.06            
C4-C5-C1-C2=  0.23            C4-C5-C1-H10=180.24           H11-C5-C1-C2=180.00           H11-C5-C1-H10=  0.00          
C1-C5-C4-O3=359.83            C1-C5-C4-C6=179.81            H11-C5-C4-O3=180.05           H11-C5-C4-C6=  0.03           
O7-C6-C4-O3=180.38            O7-C6-C4-C5=  0.40            H12-C6-C4-O3=  0.30           H12-C6-C4-C5=180.33           
O9-C8-C2-C1=111.86            O9-C8-C2-O3=293.09            H13-C8-C2-C1=354.16           H13-C8-C2-O3=175.39           
H14-C8-C2-C1=234.91           H14-C8-C2-O3= 56.14           H15-O9-C8-C2= 58.26           H15-O9-C8-H13=177.85          
H15-O9-C8-H14=295.95          
           -------------------------------------------------
          |                Final Singlepoint                |
           -------------------------------------------------

          ...................................................
          :                      SETUP                      :
          :.................................................:
          :  # basis functions                  42          :
          :  # atomic orbitals                  42          :
          :  # shells                           24          :
          :  # electrons                        48          :
          :  max. iterations                   250          :
          :  Hamiltonian                  GFN2-xTB          :
          :  restarted?                      false          :
          :  GBSA solvation                  false          :
          :  PC potential                    false          :
          :  electronic temp.          300.0000000     K    :
          :  accuracy                    1.0000000          :
          :  -> integral cutoff          0.2500000E+02      :
          :  -> integral neglect         0.1000000E-07      :
          :  -> SCF convergence          0.1000000E-05 Eh   :
          :  -> wf. convergence          0.1000000E-03 e    :
          :  Broyden damping             0.4000000          :
          :  net charge                          0          :
          :  unpaired electrons                  0          :
          ...................................................

 iter      E             dE          RMSdq      gap      omega  full diag
   1    -28.3794210 -0.283794E+02  0.506E-05    3.03       0.0  T
   2    -28.3794210 -0.932943E-11  0.334E-05    3.03     772.7  T
   3    -28.3794210 -0.106724E-10  0.186E-05    3.03    1388.4  T

   *** convergence criteria satisfied after 3 iterations ***

         #    Occupation            Energy/Eh            Energy/eV
      -------------------------------------------------------------
         1        2.0000           -0.7710286             -20.9808
       ...           ...                  ...                  ...
        18        2.0000           -0.5003399             -13.6149
        19        2.0000           -0.4964123             -13.5081
        20        2.0000           -0.4821776             -13.1207
        21        2.0000           -0.4564537             -12.4207
        22        2.0000           -0.4380000             -11.9186
        23        2.0000           -0.4205471             -11.4437
        24        2.0000           -0.4114495             -11.1961 (HOMO)
        25                         -0.3001879              -8.1685 (LUMO)
        26                         -0.2171881              -5.9100
        27                         -0.1654886              -4.5032
        28                          0.0296134               0.8058
        29                          0.0507853               1.3819
       ...                                ...                  ...
        42                          0.6859618              18.6660
      -------------------------------------------------------------
                  HL-Gap            0.1112615 Eh            3.0276 eV
             Fermi-level           -0.3558187 Eh           -9.6823 eV

 SCC (total)                   0 d,  0 h,  0 min,  0.003 sec
 SCC setup                      ...        0 min,  0.000 sec (  0.000%)
 Dispersion                     ...        0 min,  0.000 sec (  0.000%)
 classical contributions        ...        0 min,  0.000 sec (  0.000%)
 integral evaluation            ...        0 min,  0.001 sec ( 33.331%)
 iterations                     ...        0 min,  0.001 sec ( 33.331%)
 molecular gradient             ...        0 min,  0.001 sec ( 33.339%)
 printout                       ...        0 min,  0.000 sec (  0.000%)

         :::::::::::::::::::::::::::::::::::::::::::::::::::::
         ::                     SUMMARY                     ::
         :::::::::::::::::::::::::::::::::::::::::::::::::::::
         :: total energy             -28.064630641700 Eh    ::
         :: gradient norm              0.000328624518 Eh/a0 ::
         :: HOMO-LUMO gap              3.027580545125 eV    ::
         ::.................................................::
         :: SCC energy               -28.379406304121 Eh    ::
         :: -> isotropic ES            0.052840103248 Eh    ::
         :: -> anisotropic ES          0.002635327600 Eh    ::
         :: -> anisotropic XC          0.002497161520 Eh    ::
         :: -> dispersion             -0.010399581669 Eh    ::
         :: repulsion energy           0.314775662422 Eh    ::
         :: add. restraining           0.000000000000 Eh    ::
         :: total charge               0.000000000000 e     ::
         :::::::::::::::::::::::::::::::::::::::::::::::::::::

           -------------------------------------------------
          |                Property Printout                |
           -------------------------------------------------

    * Orbital Energies and Occupations

         #    Occupation            Energy/Eh            Energy/eV
      -------------------------------------------------------------
         1        2.0000           -0.7710286             -20.9808
       ...           ...                  ...                  ...
        12        2.0000           -0.5767786             -15.6949
        13        2.0000           -0.5560029             -15.1296
        14        2.0000           -0.5469266             -14.8826
        15        2.0000           -0.5360258             -14.5860
        16        2.0000           -0.5269964             -14.3403
        17        2.0000           -0.5071724             -13.8009
        18        2.0000           -0.5003399             -13.6149
        19        2.0000           -0.4964123             -13.5081
        20        2.0000           -0.4821776             -13.1207
        21        2.0000           -0.4564537             -12.4207
        22        2.0000           -0.4380000             -11.9186
        23        2.0000           -0.4205471             -11.4437
        24        2.0000           -0.4114495             -11.1961 (HOMO)
        25                         -0.3001879              -8.1685 (LUMO)
        26                         -0.2171881              -5.9100
        27                         -0.1654886              -4.5032
        28                          0.0296134               0.8058
        29                          0.0507853               1.3819
        30                          0.0815425               2.2189
        31                          0.0927004               2.5225
        32                          0.1124566               3.0601
        33                          0.1415290               3.8512
        34                          0.1613507               4.3906
        35                          0.1916718               5.2157
       ...                                ...                  ...
        42                          0.6859618              18.6660
      -------------------------------------------------------------
                  HL-Gap            0.1112615 Eh            3.0276 eV
             Fermi-level           -0.3558187 Eh           -9.6823 eV

     #   Z          covCN         q      C6AA      α(0)
     1   6 C        3.009    -0.064    29.563     8.919
     2   6 C        3.099     0.113    25.402     8.259
     3   8 O        1.728    -0.186    17.104     5.584
     4   6 C        3.095     0.087    25.961     8.351
     5   6 C        3.016    -0.037    28.899     8.818
     6   6 C        2.758     0.198    23.775     7.985
     7   8 O        0.857    -0.332    20.370     6.051
     8   6 C        3.676     0.072    19.600     6.343
     9   8 O        1.655    -0.426    21.353     6.238
    10   1 H        0.926     0.057     2.231     2.336
    11   1 H        0.926     0.071     2.074     2.252
    12   1 H        0.922     0.030     2.588     2.516
    13   1 H        0.924     0.070     2.081     2.256
    14   1 H        0.923     0.046     2.367     2.406
    15   1 H        0.805     0.300     0.722     1.334

 Mol. C6AA /au·bohr⁶  :       2676.457750
 Mol. C8AA /au·bohr⁸  :      62842.590289
 Mol. α(0) /au        :         79.649464


Wiberg/Mayer (AO) data.
largest (>0.10) Wiberg bond orders for each atom

 ---------------------------------------------------------------------------
     #   Z sym  total        # sym  WBO       # sym  WBO       # sym  WBO
 ---------------------------------------------------------------------------
     1   6 C    3.983 --     2 C    1.522     5 C    1.351    10 H    0.973
     2   6 C    3.916 --     1 C    1.522     3 O    1.151     8 C    0.999
                             4 C    0.124
     3   8 O    2.443 --     2 C    1.151     4 C    1.086
     4   6 C    3.904 --     5 C    1.479     6 C    1.101     3 O    1.086
                             2 C    0.124
     5   6 C    3.987 --     4 C    1.479     1 C    1.351    11 H    0.971
     6   6 C    3.942 --     7 O    1.837     4 C    1.101    12 H    0.929
     7   8 O    2.074 --     6 C    1.837
     8   6 C    3.961 --     9 O    1.000     2 C    0.999    13 H    0.969
                            14 H    0.955
     9   8 O    1.968 --     8 C    1.000    15 H    0.896
    10   1 H    0.996 --     1 C    0.973
    11   1 H    0.995 --     5 C    0.971
    12   1 H    0.999 --     6 C    0.929
    13   1 H    0.995 --     8 C    0.969
    14   1 H    0.997 --     8 C    0.955
    15   1 H    0.910 --     9 O    0.896
 ---------------------------------------------------------------------------

Topologies differ in total number of bonds
Writing topology from bond orders to xtbtopo.mol

molecular dipole:
                 x           y           z       tot (Debye)
 q only:       -0.963      -0.524      -0.094
   full:       -1.038      -0.414      -0.275       2.925
molecular quadrupole (traceless):
                xx          xy          yy          xz          yz          zz
 q only:      -10.937      -4.481       7.925       5.489      -0.491       3.011
  q+dip:      -15.394      -5.646      11.420       7.981      -2.652       3.974
   full:      -16.069      -5.538      10.949       7.451      -0.803       5.120

           -------------------------------------------------
          |                Geometry Summary                 |
           -------------------------------------------------

      molecular mass/u    :      126.1102747
   center of mass at/Å    :        0.3034932       0.2019884      -0.0408989
  moments of inertia/u·Å² :        0.1128553E+03   0.5466057E+03   0.6325070E+03
rotational constants/cm⁻¹ :        0.1493738E+00   0.3084057E-01   0.2665209E-01

 * 14 selected distances

     #   Z          #   Z                                           value/Å
     1   6 C        2   6 C                                       1.3720635
     2   6 C        3   8 O                                       1.3420337
     3   8 O        4   6 C                                       1.3578290
     1   6 C        5   6 C                                       1.4045479
     4   6 C        5   6 C                                       1.3792103
     4   6 C        6   6 C                                       1.4460924
     6   6 C        7   8 O                                       1.2064779
     2   6 C        8   6 C                                       1.4977106 (max)
     8   6 C        9   8 O                                       1.4074223
     1   6 C       10   1 H                                       1.0703542
     5   6 C       11   1 H                                       1.0704859
     8   6 C       13   1 H                                       1.0911794
     8   6 C       14   1 H                                       1.1011901
     9   8 O       15   1 H                                       0.9647529 (min)

 * 4 distinct bonds (by element types)

   Z      Z             #   av. dist./Å        max./Å        min./Å
   1 H    6 C           4     1.0833024     1.1011901     1.0703542
   6 C    6 C           5     1.4199250     1.4977106     1.3720635
   1 H    8 O           1     0.9647529     0.9647529     0.9647529
   6 C    8 O           4     1.3284407     1.4074223     1.2064779


optimized geometry written to: xtbopt.xyz


           -------------------------------------------------
          | TOTAL ENERGY              -28.064630641700 Eh   |
          | GRADIENT NORM               0.000328624518 Eh/α |
          | HOMO-LUMO GAP               3.027580545125 eV   |
           -------------------------------------------------

------------------------------------------------------------------------
 * finished run on 2026/09/17 at 00:40:20.716     
------------------------------------------------------------------------
 total:
 * wall-time:     0 d,  0 h,  0 min,  0.196 sec
 *  cpu-time:     0 d,  0 h,  0 min,  0.641 sec
 * ratio c/w:     3.268 speedup
 SCF:
 * wall-time:     0 d,  0 h,  0 min,  0.019 sec
 *  cpu-time:     0 d,  0 h,  0 min,  0.109 sec
 * ratio c/w:     5.757 speedup
 ANC optimizer:
 * wall-time:     0 d,  0 h,  0 min,  0.153 sec
 *  cpu-time:     0 d,  0 h,  0 min,  0.484 sec
 * ratio c/w:     3.166 speedup

