15
 energy: -28.064630641700 gnorm: 0.000328624518 xtb: 6.7.1pre (5071a88)
C            0.22377397626451       -1.32529578162429        0.58151063034878
C           -0.66478989170509       -0.41798777023210        0.06208359981762
O           -0.01018953530480        0.62981695790465       -0.46199450169791
C            1.31846105808330        0.40984459735561       -0.28879224070151
C            1.50477465647237       -0.79614517041462        0.35393373190006
C            2.26152568095534        1.39642348342586       -0.76678181697037
O            3.46164517274962        1.31101183110340       -0.67730185130094
C           -2.16174888214981       -0.40905501338470        0.01549218486059
O           -2.72005937409689        0.59664048020205        0.82648114271699
H           -0.02017994617817       -2.24971965496283        1.06274320987160
H            2.44989309747531       -1.22256738239057        0.62011990089418
H            1.77115368471948        2.26866713616212       -1.24058213414941
H           -2.54161881949524       -1.35616812413786        0.40194776370254
H           -2.49033015976233       -0.28913204373872       -1.02866888405772
H           -2.38230971802758        1.45366545473196        0.53980826476547
