17

C     -2.657604   -0.159478    0.153137
O     -1.589821    0.771646    0.021045
C     -0.322058    0.249178   -0.003294
C      0.016042   -1.100937    0.088755
C      1.360748   -1.489574    0.049466
C      2.370464   -0.534144   -0.081543
C      2.041326    0.815960   -0.174064
C      0.704446    1.192758   -0.134224
O      0.405725    2.525623   -0.226947
H     -2.592843   -0.702318    1.101913
H     -3.594584    0.405745    0.156547
H     -2.687720   -0.848741   -0.697190
H     -0.735551   -1.875958    0.191470
H      1.621514   -2.542892    0.121439
H      3.412449   -0.841727   -0.111464
H      2.816563    1.569046   -0.276240
H     -0.569096    2.565813   -0.178805
