      -----------------------------------------------------------      
     |                   =====================                   |     
     |                           x T B                           |     
     |                   =====================                   |     
     |                         S. Grimme                         |     
     |          Mulliken Center for Theoretical Chemistry        |     
     |                    University of Bonn                     |     
      -----------------------------------------------------------      

   * xtb version 6.7.1pre (5071a88) compiled by 'Marcel@Raven' on 2024-07-23

   xtb is free software: you can redistribute it and/or modify it under
   the terms of the GNU Lesser General Public License as published by
   the Free Software Foundation, either version 3 of the License, or
   (at your option) any later version.
   
   xtb is distributed in the hope that it will be useful,
   but WITHOUT ANY WARRANTY; without even the implied warranty of
   MERCHANTABILITY or FITNESS FOR A PARTICULAR PURPOSE.  See the
   GNU Lesser General Public License for more details.
   
   Cite this work as:
   * C. Bannwarth, E. Caldeweyher, S. Ehlert, A. Hansen, P. Pracht,
     J. Seibert, S. Spicher, S. Grimme, WIREs Comput. Mol. Sci., 2020, 11,
     e01493. DOI: 10.1002/wcms.1493
   
   for GFN2-xTB:
   * C. Bannwarth, S. Ehlert and S. Grimme., J. Chem. Theory Comput., 2019,
     15, 1652-1671. DOI: 10.1021/acs.jctc.8b01176
   for GFN1-xTB:
   * S. Grimme, C. Bannwarth, P. Shushkov, J. Chem. Theory Comput., 2017,
     13, 1989-2009. DOI: 10.1021/acs.jctc.7b00118
   for GFN0-xTB:
   * P. Pracht, E. Caldeweyher, S. Ehlert, S. Grimme, ChemRxiv, 2019, preprint.
     DOI: 10.26434/chemrxiv.8326202.v1
   for GFN-FF:
   * S. Spicher and S. Grimme, Angew. Chem. Int. Ed., 2020, 59, 15665-15673.
     DOI: 10.1002/anie.202004239
   
   for ALPB and GBSA implicit solvation:
   * S. Ehlert, M. Stahn, S. Spicher, S. Grimme, J. Chem. Theory Comput.,
     2021, 17, 4250-4261. DOI: 10.1021/acs.jctc.1c00471
   
   for ddCOSMO and CPCM-X implicit solvation:
   * M. Stahn, S. Ehlert, S. Grimme, J. Phys. Chem. A,
     2023, XX, XXXX-XXXX. DOI: 10.1021/acs.jpca.3c04382
   
   for DFT-D4:
   * E. Caldeweyher, C. Bannwarth and S. Grimme, J. Chem. Phys., 2017,
     147, 034112. DOI: 10.1063/1.4993215
   * E. Caldeweyher, S. Ehlert, A. Hansen, H. Neugebauer, S. Spicher,
     C. Bannwarth and S. Grimme, J. Chem. Phys., 2019, 150, 154122.
     DOI: 10.1063/1.5090222
   * E. Caldeweyher, J.-M. Mewes, S. Ehlert and S. Grimme, Phys. Chem. Chem. Phys.
     2020, 22, 8499-8512. DOI: 10.1039/D0CP00502A
   
   for sTDA-xTB:
   * S. Grimme and C. Bannwarth, J. Chem. Phys., 2016, 145, 054103.
     DOI: 10.1063/1.4959605
   
   in the mass-spec context:
   * V. Asgeirsson, C. Bauer and S. Grimme, Chem. Sci., 2017, 8, 4879.
     DOI: 10.1039/c7sc00601b
   * J. Koopman and S. Grimme, ACS Omega 2019, 4, 12, 15120-15133.
     DOI: 10.1021/acsomega.9b02011
   
   for metadynamics refer to:
   * S. Grimme, J. Chem. Theory Comput., 2019, 155, 2847-2862
     DOI: 10.1021/acs.jctc.9b00143
   
   for SPH calculations refer to:
   * S. Spicher and S. Grimme, J. Chem. Theory Comput., 2021, 17, 1701-1714
     DOI: 10.1021/acs.jctc.0c01306
   
   for ONIOM refer to:
   * C. Plett, A. Katbashev, S. Ehlert, S. Grimme, M. Bursch,
     Phys. Chem. Chem. Phys., 2023, 25, 17860-17868. DOI: 10.1039/D3CP02178E
   
   for DIPRO refer to:
   * J. Kohn, N. Gildemeister, S. Grimme, D. Fazzi, A. Hansen,
     J. Chem. Phys., 2023, just accepted.
   
   for PTB refer to:
   * S. Grimme, M. Mueller, A. Hansen, J. Chem. Phys., 2023, 158, 124111.
     DOI: 10.1063/5.0137838
   
   with help from (in alphabetical order)
   P. Atkinson, C. Bannwarth, F. Bohle, G. Brandenburg, E. Caldeweyher
   M. Checinski, S. Dohm, S. Ehlert, S. Ehrlich, I. Gerasimov, C. Hölzer
   A. Katbashev, J. Kohn, J. Koopman, C. Lavigne, S. Lehtola, F. März, M. Müller,
   F. Musil, H. Neugebauer, J. Pisarek, C. Plett, P. Pracht, F. Pultar,
   J. Seibert, P. Shushkov, S. Spicher, M. Stahn, M. Steiner, T. Strunk,
   J. Stückrath, T. Rose, and J. Unsleber
   
 * started run on 2026/09/17 at 00:40:26.421     
   ID    Z sym.   atoms
    1    6 C      1, 3-8
    2    8 O      2, 9
    3    1 H      10-17

           -------------------------------------------------
          |                Calculation Setup                |
           -------------------------------------------------

          program call               : C:\ORCA_6.1.1\xtb-6.7.1pre\xtb.exe input.xyz --gfn 2 --chrg 0 --uhf 0 --opt tight --json
          coordinate file            : input.xyz
          omp threads                :                     4


           -------------------------------------------------
          |                 G F N 2 - x T B                 |
           -------------------------------------------------

        Reference                      10.1021/acs.jctc.8b01176
      * Hamiltonian:
        H0-scaling (s, p, d)           1.850000    2.230000    2.230000
        zeta-weighting                 0.500000
      * Dispersion:
        s8                             2.700000
        a1                             0.520000
        a2                             5.000000
        s9                             5.000000
      * Repulsion:
        kExp                           1.500000    1.000000
        rExp                           1.000000
      * Coulomb:
        alpha                          2.000000
        third order                    shell-resolved
        anisotropic                    true
        a3                             3.000000
        a5                             4.000000
        cn-shift                       1.200000
        cn-exp                         4.000000
        max-rad                        5.000000


          ...................................................
          :                      SETUP                      :
          :.................................................:
          :  # basis functions                  44          :
          :  # atomic orbitals                  44          :
          :  # shells                           26          :
          :  # electrons                        48          :
          :  max. iterations                   250          :
          :  Hamiltonian                  GFN2-xTB          :
          :  restarted?                      false          :
          :  GBSA solvation                  false          :
          :  PC potential                    false          :
          :  electronic temp.          300.0000000     K    :
          :  accuracy                    1.0000000          :
          :  -> integral cutoff          0.2500000E+02      :
          :  -> integral neglect         0.1000000E-07      :
          :  -> SCF convergence          0.1000000E-05 Eh   :
          :  -> wf. convergence          0.1000000E-03 e    :
          :  Broyden damping             0.4000000          :
          :  net charge                          0          :
          :  unpaired electrons                  0          :
          ...................................................

 iter      E             dE          RMSdq      gap      omega  full diag
   1    -27.5136615 -0.275137E+02  0.465E+00    3.95       0.0  T
   2    -27.5360135 -0.223520E-01  0.273E+00    4.09       1.0  T
   3    -27.5325735  0.344000E-02  0.816E-01    3.94       1.0  T
   4    -27.5373780 -0.480449E-02  0.323E-01    4.14       1.0  T
   5    -27.5384702 -0.109222E-02  0.910E-02    4.09       1.0  T
   6    -27.5384781 -0.790413E-05  0.454E-02    4.08       1.0  T
   7    -27.5384920 -0.138362E-04  0.164E-02    4.09       1.5  T
   8    -27.5384927 -0.757901E-06  0.439E-03    4.08       5.5  T
   9    -27.5384927 -0.253028E-07  0.212E-03    4.09      11.4  T
  10    -27.5384928 -0.256777E-07  0.996E-04    4.09      24.4  T
  11    -27.5384928 -0.550003E-08  0.295E-04    4.09      82.3  T

   *** convergence criteria satisfied after 11 iterations ***

         #    Occupation            Energy/Eh            Energy/eV
      -------------------------------------------------------------
         1        2.0000           -0.7245768             -19.7167
       ...           ...                  ...                  ...
        18        2.0000           -0.4725123             -12.8577
        19        2.0000           -0.4702493             -12.7961
        20        2.0000           -0.4467871             -12.1577
        21        2.0000           -0.4373273             -11.9003
        22        2.0000           -0.4267259             -11.6118
        23        2.0000           -0.3937654             -10.7149
        24        2.0000           -0.3701292             -10.0717 (HOMO)
        25                         -0.2199986              -5.9865 (LUMO)
        26                         -0.2126866              -5.7875
        27                         -0.0899368              -2.4473
        28                         -0.0018076              -0.0492
        29                          0.0812708               2.2115
       ...                                ...                  ...
        44                          0.6430368              17.4979
      -------------------------------------------------------------
                  HL-Gap            0.1501306 Eh            4.0853 eV
             Fermi-level           -0.2950639 Eh           -8.0291 eV

 SCC (total)                   0 d,  0 h,  0 min,  0.006 sec
 SCC setup                      ...        0 min,  0.000 sec (  0.000%)
 Dispersion                     ...        0 min,  0.000 sec (  0.000%)
 classical contributions        ...        0 min,  0.000 sec (  0.000%)
 integral evaluation            ...        0 min,  0.001 sec ( 16.669%)
 iterations                     ...        0 min,  0.003 sec ( 50.000%)
 molecular gradient             ...        0 min,  0.002 sec ( 33.331%)
 printout                       ...        0 min,  0.000 sec (  0.000%)

         :::::::::::::::::::::::::::::::::::::::::::::::::::::
         ::                     SUMMARY                     ::
         :::::::::::::::::::::::::::::::::::::::::::::::::::::
         :: total energy             -27.185151640180 Eh    ::
         :: gradient norm              0.038860642815 Eh/a0 ::
         :: HOMO-LUMO gap              4.085261631641 eV    ::
         ::.................................................::
         :: SCC energy               -27.538462092081 Eh    ::
         :: -> isotropic ES            0.035065047628 Eh    ::
         :: -> anisotropic ES          0.002968433256 Eh    ::
         :: -> anisotropic XC          0.007265194909 Eh    ::
         :: -> dispersion             -0.012806646636 Eh    ::
         :: repulsion energy           0.353310451901 Eh    ::
         :: add. restraining           0.000000000000 Eh    ::
         :: total charge              -0.000000000000 e     ::
         :::::::::::::::::::::::::::::::::::::::::::::::::::::

      ----------------------------------------------------------- 
     |                   =====================                   |
     |                        A N C O P T                        |
     |                   =====================                   |
     |               Approximate Normal Coordinate               |
     |                Rational Function Optimizer                |
      ----------------------------------------------------------- 
      ----------------------------------------------------------- 
     |                   =====================                   |
     |                        A N C O P T                        |
     |                   =====================                   |
     |               Approximate Normal Coordinate               |
     |                Rational Function Optimizer                |
      ----------------------------------------------------------- 

          ...................................................
          :                      SETUP                      :
          :.................................................:
          :   optimization level             tight          :
          :   max. optcycles                   200          :
          :   ANC micro-cycles                  20          :
          :   degrees of freedom                45          :
          :.................................................:
          :   RF solver                   davidson          :
          :   write xtbopt.log                true          :
          :   linear?                        false          :
          :   energy convergence         0.1000000E-05 Eh   :
          :   grad. convergence          0.8000000E-03 Eh/α :
          :   maxmium RF displ.          1.0000000          :
          :   Hlow (freq-cutoff)         0.1000000E-01      :
          :   Hmax (freq-cutoff)         5.0000000          :
          :   S6 in model hess.         20.0000000          :
          ...................................................

generating ANC from exact Hessian ...
Using Lindh-Hessian (1995)
 Shifting diagonal of input Hessian by   7.242453604554265E-003
 Lowest  eigenvalues of input Hessian
    0.000000    0.000000    0.000000    0.000000    0.000000    0.000000
    0.010000    0.012334    0.015436    0.016777    0.022794    0.027393
    0.035804    0.036289    0.049049    0.060455    0.071654    0.076289
 Highest eigenvalues
    1.524066    1.653920    1.754076    1.872596    2.033503    2.098240
 

........................................................................
.............................. CYCLE    1 ..............................
........................................................................

 iter      E             dE          RMSdq      gap      omega  full diag
   1    -27.5384928 -0.275385E+02  0.980E-05    4.09       0.0  T
   2    -27.5384928 -0.405329E-10  0.648E-05    4.09     374.5  T
   3    -27.5384928 -0.257891E-10  0.346E-05    4.09     701.4  T
     SCC iter.                  ...        0 min,  0.000 sec
     gradient                   ...        0 min,  0.002 sec
 * total energy  :   -27.1851516 Eh     change       -0.1489120E-09 Eh
   gradient norm :     0.0388637 Eh/α   predicted     0.0000000E+00 (-100.00%)
   displ. norm   :     0.1122788 α      lambda       -0.2605541E-02
   maximum displ.:     0.0685901 α      in ANC's #11, #26, #19, ...

........................................................................
.............................. CYCLE    2 ..............................
........................................................................

 iter      E             dE          RMSdq      gap      omega  full diag
   1    -27.5545005 -0.275545E+02  0.150E-01    4.15       0.0  T
   2    -27.5545077 -0.723871E-05  0.900E-02    4.15       1.0  T
   3    -27.5544975  0.101844E-04  0.356E-02    4.15       1.0  T
   4    -27.5545113 -0.137348E-04  0.395E-03    4.15       6.1  T
   5    -27.5545113 -0.458878E-07  0.224E-03    4.15      10.8  T
   6    -27.5545113 -0.879638E-08  0.108E-03    4.15      22.5  T
   7    -27.5545113 -0.376298E-08  0.254E-04    4.15      95.6  T
   8    -27.5545113 -0.487077E-11  0.125E-04    4.15     194.3  T
     SCC iter.                  ...        0 min,  0.002 sec
     gradient                   ...        0 min,  0.001 sec
 * total energy  :   -27.1868391 Eh     change       -0.1687438E-02 Eh
   gradient norm :     0.0161336 Eh/α   predicted    -0.1319194E-02 ( -21.82%)
   displ. norm   :     0.0591294 α      lambda       -0.4665771E-03
   maximum displ.:     0.0461023 α      in ANC's #11, #26, #17, ...

........................................................................
.............................. CYCLE    3 ..............................
........................................................................

 iter      E             dE          RMSdq      gap      omega  full diag
   1    -27.5595860 -0.275596E+02  0.856E-02    4.17       0.0  T
   2    -27.5595906 -0.458069E-05  0.495E-02    4.17       1.0  T
   3    -27.5595883  0.222872E-05  0.274E-02    4.17       1.0  T
   4    -27.5595930 -0.467167E-05  0.258E-03    4.17       9.4  T
   5    -27.5595931 -0.382100E-07  0.136E-03    4.17      17.9  T
   6    -27.5595931 -0.618047E-08  0.567E-04    4.17      42.7  T
   7    -27.5595931 -0.300787E-09  0.157E-04    4.17     154.9  T
     SCC iter.                  ...        0 min,  0.002 sec
     gradient                   ...        0 min,  0.001 sec
 * total energy  :   -27.1871047 Eh     change       -0.2656700E-03 Eh
   gradient norm :     0.0052811 Eh/α   predicted    -0.2341036E-03 ( -11.88%)
   displ. norm   :     0.0196024 α      lambda       -0.4301823E-04
   maximum displ.:     0.0105388 α      in ANC's #3, #17, #11, ...

........................................................................
.............................. CYCLE    4 ..............................
........................................................................

 iter      E             dE          RMSdq      gap      omega  full diag
   1    -27.5591290 -0.275591E+02  0.244E-02    4.17       0.0  T
   2    -27.5591302 -0.126030E-05  0.149E-02    4.17       1.6  T
   3    -27.5591307 -0.418764E-06  0.873E-03    4.17       2.8  T
   4    -27.5591309 -0.242320E-06  0.128E-03    4.17      18.9  T
   5    -27.5591309 -0.103462E-07  0.493E-04    4.17      49.2  T
   6    -27.5591309 -0.219858E-08  0.182E-04    4.17     133.5  T
     SCC iter.                  ...        0 min,  0.001 sec
     gradient                   ...        0 min,  0.001 sec
 * total energy  :   -27.1871329 Eh     change       -0.2810957E-04 Eh
   gradient norm :     0.0020711 Eh/α   predicted    -0.2151666E-04 ( -23.45%)
   displ. norm   :     0.0111713 α      lambda       -0.9237602E-05
   maximum displ.:     0.0076091 α      in ANC's #3, #7, #17, ...

........................................................................
.............................. CYCLE    5 ..............................
........................................................................

 iter      E             dE          RMSdq      gap      omega  full diag
   1    -27.5584765 -0.275585E+02  0.112E-02    4.17       0.0  T
   2    -27.5584769 -0.440208E-06  0.728E-03    4.17       3.3  T
   3    -27.5584771 -0.197205E-06  0.399E-03    4.17       6.1  T
   4    -27.5584771 -0.261650E-07  0.830E-04    4.17      29.2  T
   5    -27.5584771 -0.341207E-08  0.270E-04    4.17      89.9  T
     SCC iter.                  ...        0 min,  0.001 sec
     gradient                   ...        0 min,  0.001 sec
 * total energy  :   -27.1871379 Eh     change       -0.5075192E-05 Eh
   gradient norm :     0.0004790 Eh/α   predicted    -0.4621751E-05 (  -8.93%)
   displ. norm   :     0.0032094 α      lambda       -0.3980757E-06
   maximum displ.:     0.0023254 α      in ANC's #3, #11, #15, ...

........................................................................
.............................. CYCLE    6 ..............................
........................................................................

 iter      E             dE          RMSdq      gap      omega  full diag
   1    -27.5583651 -0.275584E+02  0.324E-03    4.17       0.0  T
   2    -27.5583652 -0.220768E-07  0.193E-03    4.17      12.6  T
   3    -27.5583652 -0.509024E-08  0.114E-03    4.17      21.4  T
   4    -27.5583652 -0.472678E-08  0.191E-04    4.17     127.2  T
   5    -27.5583652 -0.179742E-09  0.698E-05    4.17     347.6  T
     SCC iter.                  ...        0 min,  0.001 sec
     gradient                   ...        0 min,  0.001 sec
 * total energy  :   -27.1871382 Eh     change       -0.2875204E-06 Eh
   gradient norm :     0.0001460 Eh/α   predicted    -0.1983795E-06 ( -31.00%)
   displ. norm   :     0.0008787 α      lambda       -0.3665770E-07
   maximum displ.:     0.0006150 α      in ANC's #7, #17, #14, ...

   *** GEOMETRY OPTIMIZATION CONVERGED AFTER 6 ITERATIONS ***

------------------------------------------------------------------------
 total energy gain   :        -0.0019866 Eh       -1.2466 kcal/mol
 total RMSD          :         0.0425064 a0        0.0225 Å
 total power (kW/mol):        -0.8692942 (step) -158.0535 (real)
------------------------------------------------------------------------

 ANCopt (total)                0 d,  0 h,  0 min,  0.034 sec
 optimizer setup                ...        0 min,  0.000 sec (  0.000%)
 model hessian                  ...        0 min,  0.002 sec (  5.883%)
 ANC generation                 ...        0 min,  0.000 sec (  0.000%)
 coordinate transformation      ...        0 min,  0.000 sec (  0.000%)
 single point calculation       ...        0 min,  0.018 sec ( 52.941%)
 optimization log               ...        0 min,  0.011 sec ( 32.353%)
 hessian update                 ...        0 min,  0.000 sec (  0.000%)
 rational function              ...        0 min,  0.002 sec (  5.883%)

================
 final structure:
================
17
 xtb: 6.7.1pre (5071a88)
C           -2.65497223994663       -0.15779324871550        0.15286079862514
O           -1.58538183893403        0.74329423282013        0.02311791225042
C           -0.30482384128056        0.23163958576456       -0.00277560901256
C            0.03320747922463       -1.10621408924002        0.08827933241163
C            1.36754445757676       -1.48730372946985        0.04892330989804
C            2.36189794912754       -0.53858301963186       -0.08073007453024
C            2.03277570199696        0.80409579120579       -0.17264743580343
C            0.70686201431081        1.19841892698998       -0.13481264982334
O            0.38629914081787        2.51607569944317       -0.22514496430686
H           -2.59674614870997       -0.71537840130007        1.09302879302059
H           -3.55727486357304        0.45212430269435        0.15080694548069
H           -2.69056476101183       -0.86016282342000       -0.68595829091207
H           -0.73010357770086       -1.86148515804368        0.19000382486553
H            1.61858503831889       -2.53452137645371        0.12091234855362
H            3.39820885815109       -0.83768553120604       -0.11104120709270
H            2.79123244410165        1.56351284161194       -0.27445321983518
H           -0.57674581246928        2.58996599695082       -0.18036881378927
 
 Bond Distances (Angstroems)
 ---------------------------
C1-O2=1.4046         C1-H10=1.0946        C1-H11=1.0891        C1-H12=1.0946        O2-C1=1.4046         O2-C3=1.3792         
C3-O2=1.3792         C3-C4=1.3829         C3-C8=1.4056         C4-C3=1.3829         C4-C5=1.3882         C4-H13=1.0786        
C5-C4=1.3882         C5-C6=1.3804         C5-H14=1.0793        C6-C5=1.3804         C6-C7=1.3855         C6-H15=1.0790        
C7-C6=1.3855         C7-C8=1.3838         C7-H16=1.0781        C8-C3=1.4056         C8-C7=1.3838         C8-O9=1.3591         
O9-C8=1.3591         O9-H17=0.9669        H10-C1=1.0946        H11-C1=1.0891        H12-C1=1.0946        H13-C4=1.0786        
H14-C5=1.0793        H15-C6=1.0790        H16-C7=1.0781        H17-O9=0.9669        
 C  H  Rav=1.0848 sigma=0.0072  Rmin=1.0781  Rmax=1.0946     7
 C  C  Rav=1.3877 sigma=0.0083  Rmin=1.3804  Rmax=1.4056     6
 O  H  Rav=0.9669 sigma=0.0000  Rmin=0.9669  Rmax=0.9669     1
 O  C  Rav=1.3810 sigma=0.0186  Rmin=1.3591  Rmax=1.4046     3
 
 selected bond angles (degree)
 --------------------
H10-C1-O2=111.45               H11-C1-O2=105.75               H11-C1-H10=109.33              H12-C1-O2=111.45               
H12-C1-H10=109.45              H12-C1-H11=109.33              C3-O2-C1=118.08                C4-C3-O2=125.77                
C8-C3-O2=114.51                C8-C3-C4=119.71                C5-C4-C3=119.91                H13-C4-C3=120.71               
H13-C4-C5=119.38               C6-C5-C4=120.42                H14-C5-C4=119.21               H14-C5-C6=120.37               
C7-C6-C5=120.08                H15-C6-C5=120.26               H15-C6-C7=119.66               C8-C7-C6=120.13                
H16-C7-C6=121.45               H16-C7-C8=118.42               C7-C8-C3=119.75                O9-C8-C3=120.22                
O9-C8-C7=120.03                H17-O9-C8=107.81               
 
 selected dihedral angles (degree)
 ---------------------------------
C3-O2-C1-H10= 61.30           C3-O2-C1-H11=180.00           C3-O2-C1-H12=298.70           C4-C3-O2-C1=  0.00            
C8-C3-O2-C1=180.00            C5-C4-C3-O2=180.00            C5-C4-C3-C8=  0.00            H13-C4-C3-O2=  0.00           
H13-C4-C3-C8=180.00           C6-C5-C4-C3=  0.00            C6-C5-C4-H13=180.00           H14-C5-C4-C3=180.00           
H14-C5-C4-H13=  0.00          C7-C6-C5-C4=  0.00            C7-C6-C5-H14=180.00           H15-C6-C5-C4=180.00           
H15-C6-C5-H14=  0.00          C8-C7-C6-C5=  0.00            C8-C7-C6-H15=180.00           H16-C7-C6-C5=180.00           
H16-C7-C6-H15=  0.00          C7-C8-C3-O2=180.00            C7-C8-C3-C4=  0.00            O9-C8-C3-O2=  0.00            
O9-C8-C3-C4=180.00            C3-C8-C7-C6=  0.00            C3-C8-C7-H16=180.00           O9-C8-C7-C6=180.00            
O9-C8-C7-H16=  0.00           H17-O9-C8-C3=  0.00           H17-O9-C8-C7=180.00           
           -------------------------------------------------
          |                Final Singlepoint                |
           -------------------------------------------------

          ...................................................
          :                      SETUP                      :
          :.................................................:
          :  # basis functions                  44          :
          :  # atomic orbitals                  44          :
          :  # shells                           26          :
          :  # electrons                        48          :
          :  max. iterations                   250          :
          :  Hamiltonian                  GFN2-xTB          :
          :  restarted?                      false          :
          :  GBSA solvation                  false          :
          :  PC potential                    false          :
          :  electronic temp.          300.0000000     K    :
          :  accuracy                    1.0000000          :
          :  -> integral cutoff          0.2500000E+02      :
          :  -> integral neglect         0.1000000E-07      :
          :  -> SCF convergence          0.1000000E-05 Eh   :
          :  -> wf. convergence          0.1000000E-03 e    :
          :  Broyden damping             0.4000000          :
          :  net charge                          0          :
          :  unpaired electrons                  0          :
          ...................................................

 iter      E             dE          RMSdq      gap      omega  full diag
   1    -27.5583652 -0.275584E+02  0.305E-05    4.17       0.0  T
   2    -27.5583652 -0.104095E-11  0.200E-05    4.17    1214.8  T
   3    -27.5583652  0.603961E-13  0.998E-06    4.17    2430.0  T

   *** convergence criteria satisfied after 3 iterations ***

         #    Occupation            Energy/Eh            Energy/eV
      -------------------------------------------------------------
         1        2.0000           -0.7236037             -19.6903
       ...           ...                  ...                  ...
        18        2.0000           -0.4713260             -12.8254
        19        2.0000           -0.4694789             -12.7752
        20        2.0000           -0.4478421             -12.1864
        21        2.0000           -0.4370029             -11.8915
        22        2.0000           -0.4255614             -11.5801
        23        2.0000           -0.3946494             -10.7390
        24        2.0000           -0.3701690             -10.0728 (HOMO)
        25                         -0.2170094              -5.9051 (LUMO)
        26                         -0.2109055              -5.7390
        27                         -0.0850295              -2.3138
        28                          0.0109653               0.2984
        29                          0.0873431               2.3767
       ...                                ...                  ...
        44                          0.6700080              18.2318
      -------------------------------------------------------------
                  HL-Gap            0.1531596 Eh            4.1677 eV
             Fermi-level           -0.2935892 Eh           -7.9890 eV

 SCC (total)                   0 d,  0 h,  0 min,  0.003 sec
 SCC setup                      ...        0 min,  0.000 sec (  0.000%)
 Dispersion                     ...        0 min,  0.000 sec (  0.000%)
 classical contributions        ...        0 min,  0.000 sec (  0.000%)
 integral evaluation            ...        0 min,  0.001 sec ( 33.331%)
 iterations                     ...        0 min,  0.001 sec ( 33.331%)
 molecular gradient             ...        0 min,  0.001 sec ( 33.339%)
 printout                       ...        0 min,  0.000 sec (  0.000%)

         :::::::::::::::::::::::::::::::::::::::::::::::::::::
         ::                     SUMMARY                     ::
         :::::::::::::::::::::::::::::::::::::::::::::::::::::
         :: total energy             -27.187138220283 Eh    ::
         :: gradient norm              0.000146169052 Eh/a0 ::
         :: HOMO-LUMO gap              4.167685595511 eV    ::
         ::.................................................::
         :: SCC energy               -27.558334231562 Eh    ::
         :: -> isotropic ES            0.034739798127 Eh    ::
         :: -> anisotropic ES          0.002335107385 Eh    ::
         :: -> anisotropic XC          0.006355261877 Eh    ::
         :: -> dispersion             -0.012848023765 Eh    ::
         :: repulsion energy           0.371196011280 Eh    ::
         :: add. restraining           0.000000000000 Eh    ::
         :: total charge              -0.000000000000 e     ::
         :::::::::::::::::::::::::::::::::::::::::::::::::::::

           -------------------------------------------------
          |                Property Printout                |
           -------------------------------------------------

    * Orbital Energies and Occupations

         #    Occupation            Energy/Eh            Energy/eV
      -------------------------------------------------------------
         1        2.0000           -0.7236037             -19.6903
       ...           ...                  ...                  ...
        12        2.0000           -0.5310960             -14.4519
        13        2.0000           -0.5256013             -14.3023
        14        2.0000           -0.5168869             -14.0652
        15        2.0000           -0.4991963             -13.5838
        16        2.0000           -0.4893910             -13.3170
        17        2.0000           -0.4750086             -12.9256
        18        2.0000           -0.4713260             -12.8254
        19        2.0000           -0.4694789             -12.7752
        20        2.0000           -0.4478421             -12.1864
        21        2.0000           -0.4370029             -11.8915
        22        2.0000           -0.4255614             -11.5801
        23        2.0000           -0.3946494             -10.7390
        24        2.0000           -0.3701690             -10.0728 (HOMO)
        25                         -0.2170094              -5.9051 (LUMO)
        26                         -0.2109055              -5.7390
        27                         -0.0850295              -2.3138
        28                          0.0109653               0.2984
        29                          0.0873431               2.3767
        30                          0.1058090               2.8792
        31                          0.1171884               3.1889
        32                          0.1533730               4.1735
        33                          0.1645442               4.4775
        34                          0.1833924               4.9904
        35                          0.1887085               5.1350
       ...                                ...                  ...
        44                          0.6700080              18.2318
      -------------------------------------------------------------
                  HL-Gap            0.1531596 Eh            4.1677 eV
             Fermi-level           -0.2935892 Eh           -7.9890 eV

     #   Z          covCN         q      C6AA      α(0)
     1   6 C        3.643     0.042    20.214     6.464
     2   8 O        1.704    -0.292    18.849     5.862
     3   6 C        2.864     0.104    25.689     8.308
     4   6 C        2.917    -0.067    29.672     8.933
     5   6 C        2.921    -0.045    29.108     8.847
     6   6 C        2.919    -0.041    29.023     8.834
     7   6 C        2.919    -0.058    29.438     8.897
     8   6 C        2.846     0.127    25.217     8.230
     9   8 O        1.659    -0.388    20.617     6.130
    10   1 H        0.924     0.040     2.452     2.449
    11   1 H        0.925     0.058     2.227     2.334
    12   1 H        0.924     0.040     2.452     2.449
    13   1 H        0.926     0.037     2.494     2.470
    14   1 H        0.926     0.035     2.514     2.480
    15   1 H        0.926     0.039     2.467     2.456
    16   1 H        0.926     0.054     2.265     2.353
    17   1 H        0.805     0.316     0.675     1.291

 Mol. C6AA /au·bohr⁶  :       3212.338485
 Mol. C8AA /au·bohr⁸  :      75535.403594
 Mol. α(0) /au        :         88.785847


Wiberg/Mayer (AO) data.
largest (>0.10) Wiberg bond orders for each atom

 ---------------------------------------------------------------------------
     #   Z sym  total        # sym  WBO       # sym  WBO       # sym  WBO
 ---------------------------------------------------------------------------
     1   6 C    3.947 --     2 O    0.986    11 H    0.980    12 H    0.977
                            10 H    0.977
     2   8 O    2.199 --     3 C    1.026     1 C    0.986
     3   6 C    3.928 --     4 C    1.411     8 C    1.289     2 O    1.026
     4   6 C    3.987 --     5 C    1.412     3 C    1.411    13 H    0.966
     5   6 C    3.991 --     6 C    1.453     4 C    1.412    14 H    0.971
     6   6 C    3.992 --     5 C    1.453     7 C    1.423    15 H    0.971
     7   6 C    3.987 --     6 C    1.423     8 C    1.401    16 H    0.967
     8   6 C    3.943 --     7 C    1.401     3 C    1.289     9 O    1.080
     9   8 O    2.126 --     8 C    1.080    17 H    0.876
    10   1 H    0.998 --     1 C    0.977
    11   1 H    0.996 --     1 C    0.980
    12   1 H    0.998 --     1 C    0.977
    13   1 H    0.999 --     4 C    0.966
    14   1 H    0.999 --     5 C    0.971
    15   1 H    0.998 --     6 C    0.971
    16   1 H    0.996 --     7 C    0.967
    17   1 H    0.900 --     9 O    0.876
 ---------------------------------------------------------------------------

Topologies differ in total number of bonds
Writing topology from bond orders to xtbtopo.mol

molecular dipole:
                 x           y           z       tot (Debye)
 q only:       -0.572      -0.436       0.066
   full:       -0.874      -0.636       0.098       2.757
molecular quadrupole (traceless):
                xx          xy          yy          xz          yz          zz
 q only:        4.810      -1.234      -2.489      -0.276       0.078      -2.321
  q+dip:        6.045      -1.870      -2.431      -0.358       0.001      -3.614
   full:        5.484      -1.863      -3.396      -0.248       0.205      -2.088

           -------------------------------------------------
          |                Geometry Summary                 |
           -------------------------------------------------

      molecular mass/u    :      124.1374871
   center of mass at/Å    :        0.1691778       0.3000435      -0.0333412
  moments of inertia/u·Å² :        0.1921162E+03   0.3239235E+03   0.5128198E+03
rotational constants/cm⁻¹ :        0.8774705E-01   0.5204201E-01   0.3287243E-01

 * 17 selected distances

     #   Z          #   Z                                           value/Å
     1   6 C        2   8 O                                       1.4045696
     2   8 O        3   6 C                                       1.3792353
     3   6 C        4   6 C                                       1.3828988
     4   6 C        5   6 C                                       1.3882484
     5   6 C        6   6 C                                       1.3804420
     6   6 C        7   6 C                                       1.3854808
     3   6 C        8   6 C                                       1.4055621 (max)
     7   6 C        8   6 C                                       1.3838243
     8   6 C        9   8 O                                       1.3590954
     1   6 C       10   1 H                                       1.0946267
     1   6 C       11   1 H                                       1.0891069
     1   6 C       12   1 H                                       1.0946267
     4   6 C       13   1 H                                       1.0786224
     5   6 C       14   1 H                                       1.0792909
     6   6 C       15   1 H                                       1.0790373
     7   6 C       16   1 H                                       1.0781167
     9   8 O       17   1 H                                       0.9669128 (min)

 * 4 distinct bonds (by element types)

   Z      Z             #   av. dist./Å        max./Å        min./Å
   1 H    6 C           7     1.0847754     1.0946267     1.0781167
   6 C    6 C           6     1.3877427     1.4055621     1.3804420
   1 H    8 O           1     0.9669128     0.9669128     0.9669128
   6 C    8 O           3     1.3809668     1.4045696     1.3590954


optimized geometry written to: xtbopt.xyz


           -------------------------------------------------
          | TOTAL ENERGY              -27.187138220283 Eh   |
          | GRADIENT NORM               0.000146169052 Eh/α |
          | HOMO-LUMO GAP               4.167685595511 eV   |
           -------------------------------------------------

------------------------------------------------------------------------
 * finished run on 2026/09/17 at 00:40:26.490     
------------------------------------------------------------------------
 total:
 * wall-time:     0 d,  0 h,  0 min,  0.067 sec
 *  cpu-time:     0 d,  0 h,  0 min,  0.250 sec
 * ratio c/w:     3.731 speedup
 SCF:
 * wall-time:     0 d,  0 h,  0 min,  0.007 sec
 *  cpu-time:     0 d,  0 h,  0 min,  0.000 sec
 * ratio c/w:     0.000 speedup
 ANC optimizer:
 * wall-time:     0 d,  0 h,  0 min,  0.038 sec
 *  cpu-time:     0 d,  0 h,  0 min,  0.172 sec
 * ratio c/w:     4.523 speedup

