      -----------------------------------------------------------      
     |                   =====================                   |     
     |                           x T B                           |     
     |                   =====================                   |     
     |                         S. Grimme                         |     
     |          Mulliken Center for Theoretical Chemistry        |     
     |                    University of Bonn                     |     
      -----------------------------------------------------------      

   * xtb version 6.7.1pre (5071a88) compiled by 'Marcel@Raven' on 2024-07-23

   xtb is free software: you can redistribute it and/or modify it under
   the terms of the GNU Lesser General Public License as published by
   the Free Software Foundation, either version 3 of the License, or
   (at your option) any later version.
   
   xtb is distributed in the hope that it will be useful,
   but WITHOUT ANY WARRANTY; without even the implied warranty of
   MERCHANTABILITY or FITNESS FOR A PARTICULAR PURPOSE.  See the
   GNU Lesser General Public License for more details.
   
   Cite this work as:
   * C. Bannwarth, E. Caldeweyher, S. Ehlert, A. Hansen, P. Pracht,
     J. Seibert, S. Spicher, S. Grimme, WIREs Comput. Mol. Sci., 2020, 11,
     e01493. DOI: 10.1002/wcms.1493
   
   for GFN2-xTB:
   * C. Bannwarth, S. Ehlert and S. Grimme., J. Chem. Theory Comput., 2019,
     15, 1652-1671. DOI: 10.1021/acs.jctc.8b01176
   for GFN1-xTB:
   * S. Grimme, C. Bannwarth, P. Shushkov, J. Chem. Theory Comput., 2017,
     13, 1989-2009. DOI: 10.1021/acs.jctc.7b00118
   for GFN0-xTB:
   * P. Pracht, E. Caldeweyher, S. Ehlert, S. Grimme, ChemRxiv, 2019, preprint.
     DOI: 10.26434/chemrxiv.8326202.v1
   for GFN-FF:
   * S. Spicher and S. Grimme, Angew. Chem. Int. Ed., 2020, 59, 15665-15673.
     DOI: 10.1002/anie.202004239
   
   for ALPB and GBSA implicit solvation:
   * S. Ehlert, M. Stahn, S. Spicher, S. Grimme, J. Chem. Theory Comput.,
     2021, 17, 4250-4261. DOI: 10.1021/acs.jctc.1c00471
   
   for ddCOSMO and CPCM-X implicit solvation:
   * M. Stahn, S. Ehlert, S. Grimme, J. Phys. Chem. A,
     2023, XX, XXXX-XXXX. DOI: 10.1021/acs.jpca.3c04382
   
   for DFT-D4:
   * E. Caldeweyher, C. Bannwarth and S. Grimme, J. Chem. Phys., 2017,
     147, 034112. DOI: 10.1063/1.4993215
   * E. Caldeweyher, S. Ehlert, A. Hansen, H. Neugebauer, S. Spicher,
     C. Bannwarth and S. Grimme, J. Chem. Phys., 2019, 150, 154122.
     DOI: 10.1063/1.5090222
   * E. Caldeweyher, J.-M. Mewes, S. Ehlert and S. Grimme, Phys. Chem. Chem. Phys.
     2020, 22, 8499-8512. DOI: 10.1039/D0CP00502A
   
   for sTDA-xTB:
   * S. Grimme and C. Bannwarth, J. Chem. Phys., 2016, 145, 054103.
     DOI: 10.1063/1.4959605
   
   in the mass-spec context:
   * V. Asgeirsson, C. Bauer and S. Grimme, Chem. Sci., 2017, 8, 4879.
     DOI: 10.1039/c7sc00601b
   * J. Koopman and S. Grimme, ACS Omega 2019, 4, 12, 15120-15133.
     DOI: 10.1021/acsomega.9b02011
   
   for metadynamics refer to:
   * S. Grimme, J. Chem. Theory Comput., 2019, 155, 2847-2862
     DOI: 10.1021/acs.jctc.9b00143
   
   for SPH calculations refer to:
   * S. Spicher and S. Grimme, J. Chem. Theory Comput., 2021, 17, 1701-1714
     DOI: 10.1021/acs.jctc.0c01306
   
   for ONIOM refer to:
   * C. Plett, A. Katbashev, S. Ehlert, S. Grimme, M. Bursch,
     Phys. Chem. Chem. Phys., 2023, 25, 17860-17868. DOI: 10.1039/D3CP02178E
   
   for DIPRO refer to:
   * J. Kohn, N. Gildemeister, S. Grimme, D. Fazzi, A. Hansen,
     J. Chem. Phys., 2023, just accepted.
   
   for PTB refer to:
   * S. Grimme, M. Mueller, A. Hansen, J. Chem. Phys., 2023, 158, 124111.
     DOI: 10.1063/5.0137838
   
   with help from (in alphabetical order)
   P. Atkinson, C. Bannwarth, F. Bohle, G. Brandenburg, E. Caldeweyher
   M. Checinski, S. Dohm, S. Ehlert, S. Ehrlich, I. Gerasimov, C. Hölzer
   A. Katbashev, J. Kohn, J. Koopman, C. Lavigne, S. Lehtola, F. März, M. Müller,
   F. Musil, H. Neugebauer, J. Pisarek, C. Plett, P. Pracht, F. Pultar,
   J. Seibert, P. Shushkov, S. Spicher, M. Stahn, M. Steiner, T. Strunk,
   J. Stückrath, T. Rose, and J. Unsleber
   
 * started run on 2026/09/17 at 00:40:27.106     
   ID    Z sym.   atoms
    1    6 C      1, 3-8, 10
    2    8 O      2, 9, 11
    3    1 H      12-21

           -------------------------------------------------
          |                Calculation Setup                |
           -------------------------------------------------

          program call               : C:\ORCA_6.1.1\xtb-6.7.1pre\xtb.exe input.xyz --gfn 2 --chrg 0 --uhf 0 --opt tight --json
          coordinate file            : input.xyz
          omp threads                :                     4


           -------------------------------------------------
          |                 G F N 2 - x T B                 |
           -------------------------------------------------

        Reference                      10.1021/acs.jctc.8b01176
      * Hamiltonian:
        H0-scaling (s, p, d)           1.850000    2.230000    2.230000
        zeta-weighting                 0.500000
      * Dispersion:
        s8                             2.700000
        a1                             0.520000
        a2                             5.000000
        s9                             5.000000
      * Repulsion:
        kExp                           1.500000    1.000000
        rExp                           1.000000
      * Coulomb:
        alpha                          2.000000
        third order                    shell-resolved
        anisotropic                    true
        a3                             3.000000
        a5                             4.000000
        cn-shift                       1.200000
        cn-exp                         4.000000
        max-rad                        5.000000


          ...................................................
          :                      SETUP                      :
          :.................................................:
          :  # basis functions                  54          :
          :  # atomic orbitals                  54          :
          :  # shells                           32          :
          :  # electrons                        60          :
          :  max. iterations                   250          :
          :  Hamiltonian                  GFN2-xTB          :
          :  restarted?                      false          :
          :  GBSA solvation                  false          :
          :  PC potential                    false          :
          :  electronic temp.          300.0000000     K    :
          :  accuracy                    1.0000000          :
          :  -> integral cutoff          0.2500000E+02      :
          :  -> integral neglect         0.1000000E-07      :
          :  -> SCF convergence          0.1000000E-05 Eh   :
          :  -> wf. convergence          0.1000000E-03 e    :
          :  Broyden damping             0.4000000          :
          :  net charge                          0          :
          :  unpaired electrons                  0          :
          ...................................................

 iter      E             dE          RMSdq      gap      omega  full diag
   1    -34.7718373 -0.347718E+02  0.433E+00    4.02       0.0  T
   2    -34.8060451 -0.342077E-01  0.235E+00    3.97       1.0  T
   3    -34.8043425  0.170257E-02  0.943E-01    3.98       1.0  T
   4    -34.8076971 -0.335459E-02  0.321E-01    4.02       1.0  T
   5    -34.8087233 -0.102616E-02  0.904E-02    4.02       1.0  T
   6    -34.8087206  0.265226E-05  0.386E-02    4.01       1.0  T
   7    -34.8087348 -0.142268E-04  0.151E-02    4.01       1.4  T
   8    -34.8087367 -0.183445E-05  0.439E-03    4.01       5.0  T
   9    -34.8087368 -0.122866E-06  0.191E-03    4.01      11.4  T
  10    -34.8087368 -0.251632E-07  0.769E-04    4.01      28.4  T
  11    -34.8087368 -0.240597E-08  0.225E-04    4.01      96.8  T

   *** convergence criteria satisfied after 11 iterations ***

         #    Occupation            Energy/Eh            Energy/eV
      -------------------------------------------------------------
         1        2.0000           -0.7218116             -19.6415
       ...           ...                  ...                  ...
        24        2.0000           -0.4617882             -12.5659
        25        2.0000           -0.4599557             -12.5160
        26        2.0000           -0.4365140             -11.8782
        27        2.0000           -0.4333851             -11.7930
        28        2.0000           -0.4314081             -11.7392
        29        2.0000           -0.3769946             -10.2585
        30        2.0000           -0.3614542              -9.8357 (HOMO)
        31                         -0.2140337              -5.8242 (LUMO)
        32                         -0.2094046              -5.6982
        33                         -0.0869282              -2.3654
        34                         -0.0125312              -0.3410
        35                          0.0386950               1.0529
       ...                                ...                  ...
        54                          0.6365963              17.3227
      -------------------------------------------------------------
                  HL-Gap            0.1474205 Eh            4.0115 eV
             Fermi-level           -0.2877439 Eh           -7.8299 eV

 SCC (total)                   0 d,  0 h,  0 min,  0.010 sec
 SCC setup                      ...        0 min,  0.001 sec ( 10.002%)
 Dispersion                     ...        0 min,  0.000 sec (  0.000%)
 classical contributions        ...        0 min,  0.000 sec (  0.000%)
 integral evaluation            ...        0 min,  0.001 sec (  9.999%)
 iterations                     ...        0 min,  0.006 sec ( 60.000%)
 molecular gradient             ...        0 min,  0.002 sec ( 19.999%)
 printout                       ...        0 min,  0.000 sec (  0.000%)

         :::::::::::::::::::::::::::::::::::::::::::::::::::::
         ::                     SUMMARY                     ::
         :::::::::::::::::::::::::::::::::::::::::::::::::::::
         :: total energy             -34.410666076323 Eh    ::
         :: gradient norm              0.037310908709 Eh/a0 ::
         :: HOMO-LUMO gap              4.011514870975 eV    ::
         ::.................................................::
         :: SCC energy               -34.808728021370 Eh    ::
         :: -> isotropic ES            0.048745463779 Eh    ::
         :: -> anisotropic ES          0.005286594220 Eh    ::
         :: -> anisotropic XC          0.004758934820 Eh    ::
         :: -> dispersion             -0.016588509319 Eh    ::
         :: repulsion energy           0.398061945048 Eh    ::
         :: add. restraining           0.000000000000 Eh    ::
         :: total charge              -0.000000000000 e     ::
         :::::::::::::::::::::::::::::::::::::::::::::::::::::

      ----------------------------------------------------------- 
     |                   =====================                   |
     |                        A N C O P T                        |
     |                   =====================                   |
     |               Approximate Normal Coordinate               |
     |                Rational Function Optimizer                |
      ----------------------------------------------------------- 
      ----------------------------------------------------------- 
     |                   =====================                   |
     |                        A N C O P T                        |
     |                   =====================                   |
     |               Approximate Normal Coordinate               |
     |                Rational Function Optimizer                |
      ----------------------------------------------------------- 

          ...................................................
          :                      SETUP                      :
          :.................................................:
          :   optimization level             tight          :
          :   max. optcycles                   200          :
          :   ANC micro-cycles                  20          :
          :   degrees of freedom                57          :
          :.................................................:
          :   RF solver                   davidson          :
          :   write xtbopt.log                true          :
          :   linear?                        false          :
          :   energy convergence         0.1000000E-05 Eh   :
          :   grad. convergence          0.8000000E-03 Eh/α :
          :   maxmium RF displ.          1.0000000          :
          :   Hlow (freq-cutoff)         0.1000000E-01      :
          :   Hmax (freq-cutoff)         5.0000000          :
          :   S6 in model hess.         20.0000000          :
          ...................................................

generating ANC from exact Hessian ...
Using Lindh-Hessian (1995)
 Shifting diagonal of input Hessian by   8.784142600273376E-003
 Lowest  eigenvalues of input Hessian
    0.000000    0.000000    0.000000    0.000000    0.000000    0.000000
    0.010000    0.012923    0.013999    0.014340    0.014638    0.018743
    0.019315    0.026377    0.029561    0.033557    0.040310    0.041288
 Highest eigenvalues
    1.597081    1.721103    1.802400    1.880092    2.085877    2.103129
 

........................................................................
.............................. CYCLE    1 ..............................
........................................................................

 iter      E             dE          RMSdq      gap      omega  full diag
   1    -34.8087368 -0.348087E+02  0.124E-04    4.01       0.0  T
   2    -34.8087368 -0.102006E-09  0.717E-05    4.01     304.3  T
   3    -34.8087368 -0.547047E-10  0.440E-05    4.01     495.6  T
     SCC iter.                  ...        0 min,  0.002 sec
     gradient                   ...        0 min,  0.002 sec
 * total energy  :   -34.4106661 Eh     change       -0.2964100E-09 Eh
   gradient norm :     0.0373127 Eh/α   predicted     0.0000000E+00 (-100.00%)
   displ. norm   :     0.1538927 α      lambda       -0.3015491E-02
   maximum displ.:     0.0799009 α      in ANC's #10, #15, #34, ...

........................................................................
.............................. CYCLE    2 ..............................
........................................................................

 iter      E             dE          RMSdq      gap      omega  full diag
   1    -34.8254615 -0.348255E+02  0.165E-01    4.07       0.0  T
   2    -34.8254704 -0.881884E-05  0.971E-02    4.07       1.0  T
   3    -34.8254607  0.967530E-05  0.276E-02    4.07       1.0  T
   4    -34.8254732 -0.125377E-04  0.358E-03    4.07       6.1  T
   5    -34.8254733 -0.794361E-07  0.200E-03    4.07      10.9  T
   6    -34.8254733 -0.288792E-07  0.954E-04    4.07      22.9  T
   7    -34.8254733 -0.193077E-08  0.272E-04    4.07      80.4  T
     SCC iter.                  ...        0 min,  0.003 sec
     gradient                   ...        0 min,  0.002 sec
 * total energy  :   -34.4126502 Eh     change       -0.1984161E-02 Eh
   gradient norm :     0.0162525 Eh/α   predicted    -0.1543478E-02 ( -22.21%)
   displ. norm   :     0.0886901 α      lambda       -0.5975468E-03
   maximum displ.:     0.0524915 α      in ANC's #15, #10, #11, ...

........................................................................
.............................. CYCLE    3 ..............................
........................................................................

 iter      E             dE          RMSdq      gap      omega  full diag
   1    -34.8315822 -0.348316E+02  0.940E-02    4.09       0.0  T
   2    -34.8315906 -0.830344E-05  0.549E-02    4.10       1.0  T
   3    -34.8315855  0.501573E-05  0.275E-02    4.10       1.0  T
   4    -34.8315940 -0.841682E-05  0.306E-03    4.10       7.1  T
   5    -34.8315941 -0.993876E-07  0.143E-03    4.10      15.2  T
   6    -34.8315941 -0.197442E-07  0.618E-04    4.10      35.3  T
   7    -34.8315941 -0.638934E-09  0.233E-04    4.10      93.6  T
     SCC iter.                  ...        0 min,  0.003 sec
     gradient                   ...        0 min,  0.002 sec
 * total energy  :   -34.4129891 Eh     change       -0.3388583E-03 Eh
   gradient norm :     0.0052092 Eh/α   predicted    -0.3012085E-03 ( -11.11%)
   displ. norm   :     0.0328848 α      lambda       -0.5741280E-04
   maximum displ.:     0.0227223 α      in ANC's #5, #11, #15, ...

........................................................................
.............................. CYCLE    4 ..............................
........................................................................

 iter      E             dE          RMSdq      gap      omega  full diag
   1    -34.8313808 -0.348314E+02  0.244E-02    4.10       0.0  T
   2    -34.8313823 -0.152699E-05  0.148E-02    4.10       1.5  T
   3    -34.8313827 -0.408746E-06  0.865E-03    4.10       2.5  T
   4    -34.8313831 -0.390372E-06  0.136E-03    4.10      16.0  T
   5    -34.8313831 -0.146218E-07  0.539E-04    4.10      40.5  T
   6    -34.8313831 -0.327835E-08  0.218E-04    4.10     100.3  T
     SCC iter.                  ...        0 min,  0.003 sec
     gradient                   ...        0 min,  0.002 sec
 * total energy  :   -34.4130285 Eh     change       -0.3944305E-04 Eh
   gradient norm :     0.0019775 Eh/α   predicted    -0.2874235E-04 ( -27.13%)
   displ. norm   :     0.0422272 α      lambda       -0.1950720E-04
   maximum displ.:     0.0327358 α      in ANC's #5, #11, #21, ...

........................................................................
.............................. CYCLE    5 ..............................
........................................................................

 iter      E             dE          RMSdq      gap      omega  full diag
   1    -34.8302720 -0.348303E+02  0.217E-02    4.09       0.0  T
   2    -34.8302734 -0.145575E-05  0.135E-02    4.09       1.6  T
   3    -34.8302740 -0.556146E-06  0.783E-03    4.09       2.8  T
   4    -34.8302742 -0.224485E-06  0.141E-03    4.09      15.5  T
   5    -34.8302742 -0.115884E-07  0.554E-04    4.09      39.4  T
   6    -34.8302742 -0.401307E-08  0.222E-04    4.09      98.1  T
     SCC iter.                  ...        0 min,  0.003 sec
     gradient                   ...        0 min,  0.001 sec
 * total energy  :   -34.4130381 Eh     change       -0.9583914E-05 Eh
   gradient norm :     0.0012862 Eh/α   predicted    -0.9763620E-05 (   1.88%)
   displ. norm   :     0.0076307 α      lambda       -0.2210146E-05
   maximum displ.:     0.0043671 α      in ANC's #5, #21, #11, ...

........................................................................
.............................. CYCLE    6 ..............................
........................................................................

 iter      E             dE          RMSdq      gap      omega  full diag
   1    -34.8305224 -0.348305E+02  0.680E-03    4.10       0.0  T
   2    -34.8305225 -0.128079E-06  0.421E-03    4.09       5.2  T
   3    -34.8305225 -0.387286E-07  0.241E-03    4.09       9.1  T
   4    -34.8305225 -0.294491E-07  0.395E-04    4.09      55.2  T
   5    -34.8305225 -0.126231E-08  0.143E-04    4.09     153.1  T
     SCC iter.                  ...        0 min,  0.002 sec
     gradient                   ...        0 min,  0.003 sec
 * total energy  :   -34.4130400 Eh     change       -0.1907979E-05 Eh
   gradient norm :     0.0001871 Eh/α   predicted    -0.1217167E-05 ( -36.21%)
   displ. norm   :     0.0022251 α      lambda       -0.7327553E-07
   maximum displ.:     0.0013999 α      in ANC's #5, #7, #11, ...

........................................................................
.............................. CYCLE    7 ..............................
........................................................................

 iter      E             dE          RMSdq      gap      omega  full diag
   1    -34.8305783 -0.348306E+02  0.121E-03    4.09       0.0  T
   2    -34.8305783 -0.524963E-09  0.719E-04    4.09      30.4  T
   3    -34.8305783  0.558678E-09  0.226E-04    4.09      96.4  T
     SCC iter.                  ...        0 min,  0.001 sec
     gradient                   ...        0 min,  0.002 sec
 * total energy  :   -34.4130401 Eh     change       -0.8156025E-07 Eh
   gradient norm :     0.0000861 Eh/α   predicted    -0.4158452E-07 ( -49.01%)
   displ. norm   :     0.0022251 α      lambda        0.0000000E+00
   maximum displ.:     0.0013999 α      in ANC's #5, #7, #11, ...

   *** GEOMETRY OPTIMIZATION CONVERGED AFTER 7 ITERATIONS ***

------------------------------------------------------------------------
 total energy gain   :        -0.0023740 Eh       -1.4897 kcal/mol
 total RMSD          :         0.0572709 a0        0.0303 Å
 total power (kW/mol):        -0.8904331 (step) -135.5007 (real)
------------------------------------------------------------------------

 ANCopt (total)                0 d,  0 h,  0 min,  0.046 sec
 optimizer setup                ...        0 min,  0.001 sec (  2.174%)
 model hessian                  ...        0 min,  0.003 sec (  6.522%)
 ANC generation                 ...        0 min,  0.001 sec (  2.174%)
 coordinate transformation      ...        0 min,  0.000 sec (  0.000%)
 single point calculation       ...        0 min,  0.038 sec ( 82.608%)
 optimization log               ...        0 min,  0.001 sec (  2.174%)
 hessian update                 ...        0 min,  0.000 sec (  0.000%)
 rational function              ...        0 min,  0.000 sec (  0.000%)

================
 final structure:
================
21
 xtb: 6.7.1pre (5071a88)
C           -2.91517138541870       -0.27610855340152        2.17949784445654
O           -1.89404429051480       -0.94564599764593        1.48574877702950
C           -1.00943329479898       -0.20236368687973        0.76440421318257
C           -0.01380323449454       -0.92460135139862        0.09428022045088
C            0.94214156436776       -0.25198105733401       -0.67335650188890
C            0.91113820152046        1.13030805334545       -0.77614262942785
C           -0.07593279278701        1.83392069762441       -0.11065004681853
C           -1.02817809190697        1.18306391362304        0.65227372351985
O            1.86446531035600       -1.08052408136004       -1.27963833539275
C            2.86257136432924       -0.48861156247669       -2.07108712408243
O            0.01534951444789       -2.28140193335635        0.19611589094395
H           -3.49125978902791       -1.05537375463416        2.67610238120437
H           -3.57030657597898        0.27880872123907        1.49920733255242
H           -2.51105772710317        0.40914860090710        2.93252192935759
H            1.64187286423176        1.66046145138255       -1.36438791656991
H           -0.10338610989569        2.90986609930904       -0.18820213329969
H           -1.78316763074473        1.76254344798153        1.15753957212211
H            3.49165170694648        0.18735582582086       -1.48340629712544
H            2.43233731230866        0.05700900841054       -2.91680555572411
H            3.46950899808390       -1.31214588982007       -2.44473933887123
H            0.76470108607935       -2.59372795133647       -0.32927600561894
 
 Bond Distances (Angstroems)
 ---------------------------
C1-O2=1.4044         C1-H12=1.0889        C1-H13=1.0954        C1-H14=1.0954        O2-C1=1.4044         O2-C3=1.3621         
C3-O2=1.3621         C3-C4=1.4007         C3-C8=1.3901         C4-C3=1.4007         C4-C5=1.3984         C4-O11=1.3609        
C5-C4=1.3984         C5-C6=1.3865         C5-O9=1.3801         C6-C5=1.3865         C6-C7=1.3828         C6-H15=1.0775        
C7-C6=1.3828         C7-C8=1.3829         C7-H16=1.0791        C8-C3=1.3901         C8-C7=1.3829         C8-H17=1.0775        
O9-C5=1.3801         O9-C10=1.4046        C10-O9=1.4046        C10-H18=1.0946       C10-H19=1.0946       C10-H20=1.0891       
O11-C4=1.3609        O11-H21=0.9670       H12-C1=1.0889        H13-C1=1.0954        H14-C1=1.0954        H15-C6=1.0775        
H16-C7=1.0791        H17-C8=1.0775        H18-C10=1.0946       H19-C10=1.0946       H20-C10=1.0891       H21-O11=0.9670       
 C  H  Rav=1.0880 sigma=0.0074  Rmin=1.0775  Rmax=1.0954     9
 C  C  Rav=1.3902 sigma=0.0071  Rmin=1.3828  Rmax=1.4007     6
 O  H  Rav=0.9670 sigma=0.0000  Rmin=0.9670  Rmax=0.9670     1
 O  C  Rav=1.3824 sigma=0.0193  Rmin=1.3609  Rmax=1.4046     5
 
 selected bond angles (degree)
 --------------------
H12-C1-O2=105.59               H13-C1-O2=111.69               H13-C1-H12=109.23              H14-C1-O2=111.69               
H14-C1-H12=109.23              H14-C1-H13=109.31              C3-O2-C1=118.27                C4-C3-O2=115.70                
C8-C3-O2=125.30                C8-C3-C4=119.01                C5-C4-C3=120.03                O11-C4-C3=119.57               
O11-C4-C5=120.40               C6-C5-C4=120.33                O9-C5-C4=114.16                O9-C5-C6=125.51                
C7-C6-C5=119.18                H15-C6-C5=121.05               H15-C6-C7=119.77               C8-C7-C6=121.17                
H16-C7-C6=119.40               H16-C7-C8=119.43               C7-C8-C3=120.28                H17-C8-C3=120.50               
H17-C8-C7=119.21               C10-O9-C5=118.00               H18-C10-O9=111.48              H19-C10-O9=111.48              
H19-C10-H18=109.45             H20-C10-O9=105.70              H20-C10-H18=109.32             H20-C10-H19=109.32             
 
 selected dihedral angles (degree)
 ---------------------------------
C3-O2-C1-H12=180.00           C3-O2-C1-H13= 61.38           C3-O2-C1-H14=298.62           C4-C3-O2-C1=180.00            
C8-C3-O2-C1=  0.00            C5-C4-C3-O2=180.00            C5-C4-C3-C8=  0.00            O11-C4-C3-O2=  0.00           
O11-C4-C3-C8=180.00           C6-C5-C4-C3=  0.00            C6-C5-C4-O11=180.00           O9-C5-C4-C3=180.00            
O9-C5-C4-O11=  0.00           C7-C6-C5-C4=  0.00            C7-C6-C5-O9=180.00            H15-C6-C5-C4=180.00           
H15-C6-C5-O9=  0.00           C8-C7-C6-C5=  0.00            C8-C7-C6-H15=180.00           H16-C7-C6-C5=180.00           
H16-C7-C6-H15=  0.00          C7-C8-C3-O2=180.00            C7-C8-C3-C4=  0.00            H17-C8-C3-O2=  0.00           
H17-C8-C3-C4=180.00           C3-C8-C7-C6=  0.00            C3-C8-C7-H16=180.00           H17-C8-C7-C6=180.00           
H17-C8-C7-H16=  0.00          C10-O9-C5-C4=180.00           C10-O9-C5-C6=  0.00           H18-C10-O9-C5= 61.32          
H19-C10-O9-C5=298.68          H20-C10-O9-C5=180.00          
           -------------------------------------------------
          |                Final Singlepoint                |
           -------------------------------------------------

          ...................................................
          :                      SETUP                      :
          :.................................................:
          :  # basis functions                  54          :
          :  # atomic orbitals                  54          :
          :  # shells                           32          :
          :  # electrons                        60          :
          :  max. iterations                   250          :
          :  Hamiltonian                  GFN2-xTB          :
          :  restarted?                      false          :
          :  GBSA solvation                  false          :
          :  PC potential                    false          :
          :  electronic temp.          300.0000000     K    :
          :  accuracy                    1.0000000          :
          :  -> integral cutoff          0.2500000E+02      :
          :  -> integral neglect         0.1000000E-07      :
          :  -> SCF convergence          0.1000000E-05 Eh   :
          :  -> wf. convergence          0.1000000E-03 e    :
          :  Broyden damping             0.4000000          :
          :  net charge                          0          :
          :  unpaired electrons                  0          :
          ...................................................

 iter      E             dE          RMSdq      gap      omega  full diag
   1    -34.8305783 -0.348306E+02  0.342E-05    4.09       0.0  T
   2    -34.8305783 -0.525091E-11  0.199E-05    4.09    1098.4  T
   3    -34.8305783 -0.282796E-11  0.117E-05    4.09    1869.1  T

   *** convergence criteria satisfied after 3 iterations ***

         #    Occupation            Energy/Eh            Energy/eV
      -------------------------------------------------------------
         1        2.0000           -0.7206846             -19.6108
       ...           ...                  ...                  ...
        24        2.0000           -0.4621698             -12.5763
        25        2.0000           -0.4590826             -12.4923
        26        2.0000           -0.4365565             -11.8793
        27        2.0000           -0.4340090             -11.8100
        28        2.0000           -0.4301371             -11.7046
        29        2.0000           -0.3769523             -10.2574
        30        2.0000           -0.3608628              -9.8196 (HOMO)
        31                         -0.2103813              -5.7248 (LUMO)
        32                         -0.2073603              -5.6426
        33                         -0.0815172              -2.2182
        34                          0.0020202               0.0550
        35                          0.0579527               1.5770
       ...                                ...                  ...
        54                          0.6630645              18.0429
      -------------------------------------------------------------
                  HL-Gap            0.1504815 Eh            4.0948 eV
             Fermi-level           -0.2856221 Eh           -7.7722 eV

 SCC (total)                   0 d,  0 h,  0 min,  0.005 sec
 SCC setup                      ...        0 min,  0.000 sec (  0.000%)
 Dispersion                     ...        0 min,  0.000 sec (  0.000%)
 classical contributions        ...        0 min,  0.001 sec ( 19.999%)
 integral evaluation            ...        0 min,  0.000 sec (  0.000%)
 iterations                     ...        0 min,  0.002 sec ( 40.003%)
 molecular gradient             ...        0 min,  0.002 sec ( 39.998%)
 printout                       ...        0 min,  0.000 sec (  0.000%)

         :::::::::::::::::::::::::::::::::::::::::::::::::::::
         ::                     SUMMARY                     ::
         :::::::::::::::::::::::::::::::::::::::::::::::::::::
         :: total energy             -34.413040113307 Eh    ::
         :: gradient norm              0.000083470456 Eh/a0 ::
         :: HOMO-LUMO gap              4.094809238702 eV    ::
         ::.................................................::
         :: SCC energy               -34.830568674877 Eh    ::
         :: -> isotropic ES            0.048002237014 Eh    ::
         :: -> anisotropic ES          0.004584151385 Eh    ::
         :: -> anisotropic XC          0.003905536043 Eh    ::
         :: -> dispersion             -0.016671670045 Eh    ::
         :: repulsion energy           0.417528561570 Eh    ::
         :: add. restraining           0.000000000000 Eh    ::
         :: total charge              -0.000000000000 e     ::
         :::::::::::::::::::::::::::::::::::::::::::::::::::::

           -------------------------------------------------
          |                Property Printout                |
           -------------------------------------------------

    * Orbital Energies and Occupations

         #    Occupation            Energy/Eh            Energy/eV
      -------------------------------------------------------------
         1        2.0000           -0.7206846             -19.6108
       ...           ...                  ...                  ...
        18        2.0000           -0.5146316             -14.0038
        19        2.0000           -0.5107546             -13.8983
        20        2.0000           -0.4936484             -13.4329
        21        2.0000           -0.4803968             -13.0723
        22        2.0000           -0.4690508             -12.7635
        23        2.0000           -0.4675306             -12.7222
        24        2.0000           -0.4621698             -12.5763
        25        2.0000           -0.4590826             -12.4923
        26        2.0000           -0.4365565             -11.8793
        27        2.0000           -0.4340090             -11.8100
        28        2.0000           -0.4301371             -11.7046
        29        2.0000           -0.3769523             -10.2574
        30        2.0000           -0.3608628              -9.8196 (HOMO)
        31                         -0.2103813              -5.7248 (LUMO)
        32                         -0.2073603              -5.6426
        33                         -0.0815172              -2.2182
        34                          0.0020202               0.0550
        35                          0.0579527               1.5770
        36                          0.0859546               2.3389
        37                          0.1078388               2.9344
        38                          0.1186968               3.2299
        39                          0.1258988               3.4259
        40                          0.1343168               3.6549
        41                          0.1687742               4.5926
       ...                                ...                  ...
        54                          0.6630645              18.0429
      -------------------------------------------------------------
                  HL-Gap            0.1504815 Eh            4.0948 eV
             Fermi-level           -0.2856221 Eh           -7.7722 eV

     #   Z          covCN         q      C6AA      α(0)
     1   6 C        3.646     0.036    20.302     6.475
     2   8 O        1.706    -0.250    18.138     5.750
     3   6 C        2.865     0.122    25.315     8.247
     4   6 C        2.847     0.104    25.698     8.308
     5   6 C        2.864     0.102    25.747     8.317
     6   6 C        2.915    -0.079    29.979     8.978
     7   6 C        2.921    -0.047    29.170     8.857
     8   6 C        2.917    -0.081    30.032     8.986
     9   8 O        1.705    -0.289    18.805     5.855
    10   6 C        3.643     0.041    20.232     6.466
    11   8 O        1.659    -0.377    20.407     6.098
    12   1 H        0.925     0.064     2.150     2.293
    13   1 H        0.924     0.040     2.453     2.449
    14   1 H        0.924     0.040     2.453     2.449
    15   1 H        0.926     0.039     2.459     2.452
    16   1 H        0.926     0.038     2.473     2.459
    17   1 H        0.926     0.042     2.426     2.436
    18   1 H        0.924     0.040     2.443     2.444
    19   1 H        0.924     0.040     2.443     2.444
    20   1 H        0.925     0.059     2.217     2.328
    21   1 H        0.805     0.317     0.671     1.287

 Mol. C6AA /au·bohr⁶  :       4650.521171
 Mol. C8AA /au·bohr⁸  :     107114.872468
 Mol. α(0) /au        :        105.381488


Wiberg/Mayer (AO) data.
largest (>0.10) Wiberg bond orders for each atom

 ---------------------------------------------------------------------------
     #   Z sym  total        # sym  WBO       # sym  WBO       # sym  WBO
 ---------------------------------------------------------------------------
     1   6 C    3.947 --     2 O    0.989    12 H    0.979    13 H    0.976
                            14 H    0.976
     2   8 O    2.242 --     3 C    1.064     1 C    0.989
     3   6 C    3.939 --     8 C    1.371     4 C    1.308     2 O    1.064
     4   6 C    3.944 --     5 C    1.324     3 C    1.308    11 O    1.080
     5   6 C    3.928 --     6 C    1.379     4 C    1.324     9 O    1.026
     6   6 C    3.984 --     7 C    1.431     5 C    1.379    15 H    0.966
     7   6 C    3.991 --     8 C    1.435     6 C    1.431    16 H    0.971
     8   6 C    3.984 --     7 C    1.435     3 C    1.371    17 H    0.966
     9   8 O    2.198 --     5 C    1.026    10 C    0.986
    10   6 C    3.947 --     9 O    0.986    20 H    0.980    18 H    0.977
                            19 H    0.977
    11   8 O    2.128 --     4 C    1.080    21 H    0.875
    12   1 H    0.995 --     1 C    0.979
    13   1 H    0.998 --     1 C    0.976
    14   1 H    0.998 --     1 C    0.976
    15   1 H    0.998 --     6 C    0.966
    16   1 H    0.998 --     7 C    0.971
    17   1 H    0.998 --     8 C    0.966
    18   1 H    0.998 --    10 C    0.977
    19   1 H    0.998 --    10 C    0.977
    20   1 H    0.996 --    10 C    0.980
    21   1 H    0.899 --    11 O    0.875
 ---------------------------------------------------------------------------

Topologies differ in total number of bonds
Writing topology from bond orders to xtbtopo.mol

molecular dipole:
                 x           y           z       tot (Debye)
 q only:        0.250       0.529      -0.232
   full:        0.435       0.790      -0.394       2.501
molecular quadrupole (traceless):
                xx          xy          yy          xz          yz          zz
 q only:        5.576      -3.198      -5.687      -7.907       2.379       0.111
  q+dip:        6.156      -4.376      -6.261      -8.490       3.270       0.106
   full:        6.619      -4.410      -7.343      -8.202       3.470       0.724

           -------------------------------------------------
          |                Geometry Summary                 |
           -------------------------------------------------

      molecular mass/u    :      154.1635095
   center of mass at/Å    :       -0.0246983      -0.2758845       0.0433406
  moments of inertia/u·Å² :        0.2206019E+03   0.6606380E+03   0.8748019E+03
rotational constants/cm⁻¹ :        0.7641654E-01   0.2551720E-01   0.1927023E-01

 * 21 selected distances

     #   Z          #   Z                                           value/Å
     1   6 C        2   8 O                                       1.4043750
     2   8 O        3   6 C                                       1.3621100
     3   6 C        4   6 C                                       1.4007045
     4   6 C        5   6 C                                       1.3983973
     5   6 C        6   6 C                                       1.3864522
     6   6 C        7   6 C                                       1.3828451
     3   6 C        8   6 C                                       1.3900844
     7   6 C        8   6 C                                       1.3829095
     5   6 C        9   8 O                                       1.3801241
     9   8 O       10   6 C                                       1.4046237 (max)
     4   6 C       11   8 O                                       1.3609293
     1   6 C       12   1 H                                       1.0889207
     1   6 C       13   1 H                                       1.0954135
     1   6 C       14   1 H                                       1.0954135
     6   6 C       15   1 H                                       1.0775289
     7   6 C       16   1 H                                       1.0790861
     8   6 C       17   1 H                                       1.0775433
    10   6 C       18   1 H                                       1.0945515
    10   6 C       19   1 H                                       1.0945515
    10   6 C       20   1 H                                       1.0891273
    11   8 O       21   1 H                                       0.9670120 (min)

 * 4 distinct bonds (by element types)

   Z      Z             #   av. dist./Å        max./Å        min./Å
   1 H    6 C           9     1.0880151     1.0954135     1.0775289
   6 C    6 C           6     1.3902322     1.4007045     1.3828451
   1 H    8 O           1     0.9670120     0.9670120     0.9670120
   6 C    8 O           5     1.3824324     1.4046237     1.3609293


optimized geometry written to: xtbopt.xyz


           -------------------------------------------------
          | TOTAL ENERGY              -34.413040113307 Eh   |
          | GRADIENT NORM               0.000083470456 Eh/α |
          | HOMO-LUMO GAP               4.094809238702 eV   |
           -------------------------------------------------

------------------------------------------------------------------------
 * finished run on 2026/09/17 at 00:40:27.193     
------------------------------------------------------------------------
 total:
 * wall-time:     0 d,  0 h,  0 min,  0.085 sec
 *  cpu-time:     0 d,  0 h,  0 min,  0.312 sec
 * ratio c/w:     3.676 speedup
 SCF:
 * wall-time:     0 d,  0 h,  0 min,  0.011 sec
 *  cpu-time:     0 d,  0 h,  0 min,  0.016 sec
 * ratio c/w:     1.420 speedup
 ANC optimizer:
 * wall-time:     0 d,  0 h,  0 min,  0.052 sec
 *  cpu-time:     0 d,  0 h,  0 min,  0.234 sec
 * ratio c/w:     4.507 speedup

