21
 energy: -34.413040113307 gnorm: 0.000083470456 xtb: 6.7.1pre (5071a88)
C           -2.91517138541870       -0.27610855340152        2.17949784445654
O           -1.89404429051480       -0.94564599764593        1.48574877702950
C           -1.00943329479898       -0.20236368687973        0.76440421318257
C           -0.01380323449454       -0.92460135139862        0.09428022045088
C            0.94214156436776       -0.25198105733401       -0.67335650188890
C            0.91113820152046        1.13030805334545       -0.77614262942785
C           -0.07593279278701        1.83392069762441       -0.11065004681853
C           -1.02817809190697        1.18306391362304        0.65227372351985
O            1.86446531035600       -1.08052408136004       -1.27963833539275
C            2.86257136432924       -0.48861156247669       -2.07108712408243
O            0.01534951444789       -2.28140193335635        0.19611589094395
H           -3.49125978902791       -1.05537375463416        2.67610238120437
H           -3.57030657597898        0.27880872123907        1.49920733255242
H           -2.51105772710317        0.40914860090710        2.93252192935759
H            1.64187286423176        1.66046145138255       -1.36438791656991
H           -0.10338610989569        2.90986609930904       -0.18820213329969
H           -1.78316763074473        1.76254344798153        1.15753957212211
H            3.49165170694648        0.18735582582086       -1.48340629712544
H            2.43233731230866        0.05700900841054       -2.91680555572411
H            3.46950899808390       -1.31214588982007       -2.44473933887123
H            0.76470108607935       -2.59372795133647       -0.32927600561894
