 Entering Gaussian System
 *********************************************
 Gaussian 98:
 frequency output generated by the xtb code
 *********************************************
                         Standard orientation:
 --------------------------------------------------------------------
  Center     Atomic     Atomic              Coordinates (Angstroms)
  Number     Number      Type              X           Y           Z
 --------------------------------------------------------------------
    1          6             0       -1.705108    0.588059    0.128865
    2          6             0       -1.494808   -0.737913    0.457310
    3          6             0       -0.218574   -1.274342    0.387306
    4          6             0        0.843610   -0.484276   -0.010646
    5          6             0        0.634189    0.860421   -0.344384
    6          6             0       -0.646034    1.385569   -0.270602
    7          8             0        1.674174    1.641051   -0.735963
    8          8             0        2.135624   -0.951560   -0.102332
    9          1             0       -2.697511    1.008196    0.182474
   10          1             0       -2.318300   -1.361605    0.768903
   11          1             0       -0.045524   -2.311494    0.642752
   12          1             0       -0.790476    2.421740   -0.530651
   13          1             0        2.473476    1.096773   -0.722580
   14          1             0        2.155265   -1.880618    0.149548
 --------------------------------------------------------------------
     1 basis functions        1 primitive gaussians
     1 alpha electrons        1 beta electrons
 
 Harmonic frequencies (cm**-1), IR intensities (km*mol⁻¹),
 Raman scattering activities (A**4/amu), Raman depolarization ratios,
 reduced masses (AMU), force constants (mDyne/A) and normal coordinates:
                      1                      2                      3
                        a                      a                      a 
 Frequencies --   176.0187               274.8725               282.7811
 Red. masses --    12.3387                10.6565                13.8615
 Frc consts  --     0.0000                 0.0000                 0.0000
 IR Inten    --     0.0034                 1.0647                 3.8976
 Raman Activ --     0.0000                 0.0000                 0.0000
 Depolar     --     0.0000                 0.0000                 0.0000
 Atom AN      X      Y      Z        X      Y      Z        X      Y      Z
   1   6     0.04   0.07   0.26     0.05   0.08   0.29     0.02   0.01  -0.01
   2   6    -0.05  -0.07  -0.27     0.05   0.08   0.28     0.03   0.01  -0.01
   3   6    -0.05  -0.09  -0.31    -0.06  -0.10  -0.35     0.04   0.09  -0.03
   4   6     0.00   0.00   0.02    -0.06  -0.09  -0.33     0.14  -0.01  -0.02
   5   6    -0.00  -0.01  -0.02    -0.05  -0.09  -0.31     0.11   0.00  -0.02
   6   6     0.06   0.09   0.33    -0.06  -0.09  -0.34     0.06  -0.08   0.01
   7   8    -0.08  -0.13  -0.46     0.05   0.07   0.27    -0.29   0.56  -0.11
   8   8     0.08   0.13   0.46     0.05   0.07   0.27    -0.04  -0.61   0.18
   9   1     0.03   0.04   0.15     0.04   0.06   0.22     0.01   0.01  -0.01
  10   1    -0.03  -0.04  -0.16     0.04   0.06   0.21     0.02  -0.01  -0.00
  11   1    -0.03  -0.04  -0.15    -0.02  -0.03  -0.12     0.01   0.02  -0.01
  12   1     0.03   0.04   0.16    -0.02  -0.03  -0.11     0.04  -0.02  -0.00
  13   1    -0.02  -0.03  -0.13     0.03   0.04   0.15     0.01   0.26  -0.07
  14   1     0.02   0.04   0.13     0.02   0.04   0.15    -0.15  -0.15   0.07
                      4                      5                      6
                        a                      a                      a 
 Frequencies --   378.1297               419.7418               440.1623
 Red. masses --     3.2177                12.1813                 8.4108
 Frc consts  --     0.0000                 0.0000                 0.0000
 IR Inten    --   130.0370                 6.0416                 9.8413
 Raman Activ --     0.0000                 0.0000                 0.0000
 Depolar     --     0.0000                 0.0000                 0.0000
 Atom AN      X      Y      Z        X      Y      Z        X      Y      Z
   1   6    -0.01  -0.02  -0.07    -0.07   0.27  -0.06    -0.02  -0.03  -0.12
   2   6    -0.01  -0.02  -0.08    -0.01   0.28  -0.07    -0.02  -0.02  -0.09
   3   6     0.02   0.04   0.14    -0.09  -0.06   0.03     0.05   0.08   0.29
   4   6    -0.03  -0.05  -0.19     0.15  -0.32   0.06    -0.07  -0.12  -0.43
   5   6    -0.02  -0.04  -0.13    -0.07  -0.35   0.11    -0.07  -0.11  -0.40
   6   6     0.03   0.05   0.17     0.09  -0.01  -0.01     0.05   0.08   0.29
   7   8     0.01   0.02   0.08    -0.46  -0.03   0.09     0.01   0.02   0.06
   8   8    -0.03  -0.06  -0.21     0.41   0.12  -0.10     0.04   0.06   0.22
   9   1    -0.00  -0.00  -0.01    -0.01   0.10  -0.02    -0.00  -0.00  -0.00
  10   1    -0.00  -0.01  -0.02    -0.02   0.10  -0.02     0.00   0.00   0.01
  11   1     0.02   0.04   0.13    -0.14  -0.03   0.03     0.05   0.08   0.28
  12   1     0.03   0.04   0.15     0.16   0.01  -0.03     0.05   0.08   0.28
  13   1    -0.00  -0.00  -0.01    -0.05   0.09  -0.02     0.04   0.06   0.22
  14   1     0.14   0.23   0.84     0.23   0.03  -0.05    -0.06  -0.09  -0.33
                      7                      8                      9
                        a                      a                      a 
 Frequencies --   492.0061               523.5194               526.0364
 Red. masses --     2.7097                11.8469                10.4261
 Frc consts  --     0.0000                 0.0000                 0.0000
 IR Inten    --   211.5538                13.6885                 3.0354
 Raman Activ --     0.0000                 0.0000                 0.0000
 Depolar     --     0.0000                 0.0000                 0.0000
 Atom AN      X      Y      Z        X      Y      Z        X      Y      Z
   1   6    -0.01  -0.02  -0.07    -0.28   0.09   0.03     0.07   0.12   0.43
   2   6     0.01   0.01   0.04     0.23   0.14  -0.08    -0.08  -0.12  -0.45
   3   6     0.00   0.00   0.01     0.26   0.24  -0.11     0.04   0.07   0.26
   4   6    -0.02  -0.04  -0.14     0.25   0.14  -0.08     0.05   0.08   0.29
   5   6    -0.01  -0.02  -0.06    -0.27   0.08   0.02    -0.06  -0.09  -0.34
   6   6     0.00   0.00   0.01    -0.33   0.16   0.01    -0.04  -0.07  -0.24
   7   8     0.04   0.07   0.25    -0.03  -0.33   0.10     0.03   0.05   0.18
   8   8     0.02   0.04   0.13     0.21  -0.33   0.06    -0.02  -0.03  -0.12
   9   1    -0.00  -0.01  -0.03    -0.11  -0.06   0.04     0.04   0.07   0.25
  10   1     0.01   0.01   0.05     0.13  -0.04  -0.01    -0.04  -0.07  -0.24
  11   1     0.01   0.02   0.06     0.06   0.07  -0.03     0.02   0.03   0.11
  12   1     0.01   0.01   0.05    -0.08   0.05   0.00    -0.01  -0.02  -0.07
  13   1    -0.15  -0.24  -0.88    -0.08  -0.19   0.07    -0.01  -0.02  -0.06
  14   1    -0.01  -0.02  -0.07    -0.10  -0.08   0.04    -0.01  -0.01  -0.04
                     10                     11                     12
                        a                      a                      a 
 Frequencies --   555.7668               667.7907               781.7083
 Red. masses --    11.9601                11.7920                 3.3243
 Frc consts  --     0.0000                 0.0000                 0.0000
 IR Inten    --     1.9637                 0.0107                47.8458
 Raman Activ --     0.0000                 0.0000                 0.0000
 Depolar     --     0.0000                 0.0000                 0.0000
 Atom AN      X      Y      Z        X      Y      Z        X      Y      Z
   1   6     0.39   0.06  -0.08    -0.04  -0.07  -0.24     0.03   0.05   0.17
   2   6     0.40   0.03  -0.08     0.04   0.06   0.24     0.03   0.05   0.20
   3   6     0.18  -0.38   0.07    -0.05  -0.07  -0.26     0.03   0.05   0.19
   4   6    -0.18  -0.03   0.04     0.09   0.15   0.55    -0.03  -0.04  -0.16
   5   6    -0.19   0.00   0.03    -0.10  -0.15  -0.56    -0.03  -0.05  -0.18
   6   6     0.03   0.41  -0.12     0.04   0.07   0.26     0.03   0.04   0.15
   7   8    -0.28  -0.06   0.06     0.02   0.02   0.09     0.01   0.01   0.05
   8   8    -0.29  -0.02   0.05    -0.01  -0.02  -0.08     0.01   0.01   0.04
   9   1     0.07  -0.08   0.01    -0.01  -0.01  -0.03    -0.08  -0.12  -0.45
  10   1     0.05   0.09  -0.03     0.01   0.01   0.05    -0.08  -0.14  -0.50
  11   1     0.06  -0.10   0.02    -0.01  -0.02  -0.08    -0.07  -0.11  -0.40
  12   1     0.03   0.12  -0.04     0.02   0.03   0.12    -0.05  -0.09  -0.32
  13   1    -0.06   0.00   0.01     0.00   0.00   0.01    -0.00  -0.00  -0.01
  14   1    -0.10  -0.00   0.02    -0.00  -0.00  -0.01     0.00   0.00   0.02
                     13                     14                     15
                        a                      a                      a 
 Frequencies --   794.0854               826.8696               865.6606
 Red. masses --    12.0897                11.9645                 3.3067
 Frc consts  --     0.0000                 0.0000                 0.0000
 IR Inten    --    32.3927                15.4995                 0.2246
 Raman Activ --     0.0000                 0.0000                 0.0000
 Depolar     --     0.0000                 0.0000                 0.0000
 Atom AN      X      Y      Z        X      Y      Z        X      Y      Z
   1   6    -0.05  -0.00   0.01     0.48  -0.18  -0.03     0.03   0.05   0.19
   2   6    -0.16  -0.08   0.05    -0.36  -0.26   0.13    -0.02  -0.03  -0.11
   3   6    -0.17  -0.37   0.13    -0.14   0.31  -0.06    -0.05  -0.08  -0.29
   4   6    -0.04  -0.16   0.05     0.05   0.15  -0.05     0.00   0.00   0.01
   5   6    -0.09   0.21  -0.04    -0.07   0.07  -0.01    -0.00  -0.01  -0.03
   6   6    -0.24   0.39  -0.06     0.10   0.22  -0.08     0.04   0.07   0.24
   7   8     0.29   0.23  -0.11    -0.29  -0.20   0.10     0.00   0.00   0.01
   8   8     0.42  -0.19  -0.02     0.26  -0.10  -0.02    -0.00  -0.00  -0.01
   9   1    -0.05  -0.07   0.03     0.16   0.03  -0.04    -0.05  -0.08  -0.30
  10   1    -0.11   0.05   0.00    -0.14  -0.02   0.03     0.02   0.04   0.14
  11   1    -0.11  -0.11   0.05     0.06   0.10  -0.04     0.10   0.16   0.58
  12   1    -0.18   0.10   0.00    -0.05   0.05  -0.01    -0.09  -0.14  -0.52
  13   1     0.03  -0.01  -0.00    -0.08  -0.07   0.03     0.00   0.00   0.01
  14   1     0.17  -0.05  -0.02    -0.02  -0.02   0.01    -0.00  -0.00  -0.00
                     16                     17                     18
                        a                      a                      a 
 Frequencies --   896.7981               917.3360              1077.5739
 Red. masses --     3.9026                 3.0409                 6.7119
 Frc consts  --     0.0000                 0.0000                 0.0000
 IR Inten    --     3.2311                 0.3067                22.4503
 Raman Activ --     0.0000                 0.0000                 0.0000
 Depolar     --     0.0000                 0.0000                 0.0000
 Atom AN      X      Y      Z        X      Y      Z        X      Y      Z
   1   6    -0.02  -0.03  -0.12     0.05   0.08   0.30     0.23  -0.09  -0.01
   2   6    -0.05  -0.08  -0.28    -0.03  -0.06  -0.20     0.18   0.30  -0.11
   3   6     0.04   0.07   0.24     0.01   0.01   0.03    -0.10  -0.08   0.04
   4   6    -0.01  -0.01  -0.03     0.01   0.02   0.08    -0.11   0.11  -0.01
   5   6    -0.01  -0.02  -0.08    -0.01  -0.02  -0.06     0.01   0.22  -0.06
   6   6     0.05   0.08   0.28    -0.03  -0.04  -0.15    -0.01  -0.40   0.11
   7   8     0.00   0.01   0.02    -0.00  -0.00  -0.01    -0.09  -0.00   0.02
   8   8     0.00   0.00   0.01    -0.00  -0.00  -0.00     0.16  -0.04  -0.02
   9   1     0.03   0.05   0.19    -0.11  -0.17  -0.62     0.11   0.06  -0.03
  10   1     0.09   0.14   0.51     0.08   0.12   0.44    -0.10   0.28  -0.06
  11   1    -0.07  -0.11  -0.42    -0.03  -0.05  -0.17    -0.28  -0.04   0.06
  12   1    -0.08  -0.12  -0.44     0.06   0.10   0.37    -0.44  -0.16   0.12
  13   1    -0.00  -0.00  -0.01     0.00   0.00   0.01    -0.14  -0.19   0.08
  14   1     0.00   0.00   0.01    -0.00  -0.00  -0.00    -0.11  -0.00   0.02
                     19                     20                     21
                        a                      a                      a 
 Frequencies --  1089.0420              1139.3209              1169.0038
 Red. masses --     7.1854                 3.2518                 2.4911
 Frc consts  --     0.0000                 0.0000                 0.0000
 IR Inten    --    75.9789                63.4157                88.9600
 Raman Activ --     0.0000                 0.0000                 0.0000
 Depolar     --     0.0000                 0.0000                 0.0000
 Atom AN      X      Y      Z        X      Y      Z        X      Y      Z
   1   6     0.21  -0.23   0.03     0.02  -0.02   0.00    -0.02   0.15  -0.04
   2   6     0.15   0.12  -0.06     0.04  -0.04   0.00    -0.07  -0.01   0.01
   3   6    -0.13   0.39  -0.09    -0.14  -0.02   0.03     0.12  -0.06  -0.00
   4   6     0.09  -0.28   0.06     0.09   0.10  -0.04     0.06  -0.05   0.00
   5   6    -0.05  -0.15   0.05     0.07  -0.19   0.04     0.07  -0.09   0.01
   6   6    -0.11   0.13  -0.02    -0.10   0.08  -0.01    -0.10   0.05   0.00
   7   8     0.10   0.04  -0.03     0.04  -0.12   0.03    -0.02  -0.18   0.05
   8   8    -0.23   0.01   0.04     0.17   0.15  -0.07    -0.08   0.00   0.01
   9   1    -0.04  -0.31   0.09    -0.08  -0.21   0.07     0.13   0.38  -0.13
  10   1     0.13  -0.06  -0.01    -0.02   0.03  -0.00    -0.03   0.01   0.00
  11   1    -0.30   0.08   0.03    -0.30  -0.04   0.06     0.32   0.01  -0.06
  12   1    -0.27   0.01   0.04    -0.01   0.02  -0.00    -0.59  -0.04   0.11
  13   1     0.10   0.13  -0.05     0.26   0.34  -0.14     0.27   0.37  -0.15
  14   1     0.36  -0.01  -0.06    -0.67   0.05   0.10     0.08  -0.00  -0.01
                     22                     23                     24
                        a                      a                      a 
 Frequencies --  1177.7744              1213.4362              1283.8786
 Red. masses --     1.5038                 9.0773                 4.1845
 Frc consts  --     0.0000                 0.0000                 0.0000
 IR Inten    --     4.8254               150.3307                31.5160
 Raman Activ --     0.0000                 0.0000                 0.0000
 Depolar     --     0.0000                 0.0000                 0.0000
 Atom AN      X      Y      Z        X      Y      Z        X      Y      Z
   1   6    -0.02   0.05  -0.01    -0.11   0.05   0.00    -0.06   0.12  -0.02
   2   6     0.04  -0.10   0.02     0.14   0.04  -0.04    -0.15   0.11  -0.00
   3   6    -0.01  -0.02   0.01    -0.18  -0.02   0.04    -0.03  -0.01   0.01
   4   6    -0.01  -0.07   0.02    -0.45   0.24   0.01     0.04  -0.25   0.06
   5   6    -0.02   0.08  -0.02     0.32   0.21  -0.11     0.19  -0.10  -0.01
   6   6     0.08   0.07  -0.03     0.13  -0.01  -0.02     0.25   0.10  -0.07
   7   8    -0.02   0.04  -0.01    -0.20  -0.24   0.10    -0.07   0.12  -0.02
   8   8     0.02   0.03  -0.01     0.20  -0.14   0.00     0.02   0.09  -0.03
   9   1     0.15   0.41  -0.14    -0.14  -0.25   0.09    -0.17  -0.33   0.12
  10   1     0.44  -0.56   0.08     0.22  -0.21   0.02     0.13  -0.19   0.03
  11   1    -0.43  -0.05   0.09     0.05   0.01  -0.01     0.33   0.03  -0.06
  12   1    -0.09   0.01   0.01    -0.00  -0.00   0.00    -0.41  -0.02   0.07
  13   1    -0.08  -0.10   0.04     0.14   0.22  -0.08    -0.22  -0.29   0.12
  14   1    -0.12   0.01   0.02     0.25  -0.03  -0.03    -0.29   0.02   0.04
                     25                     26                     27
                        a                      a                      a 
 Frequencies --  1295.4649              1363.7859              1456.1055
 Red. masses --    10.0463                10.2361                 9.4939
 Frc consts  --     0.0000                 0.0000                 0.0000
 IR Inten    --   264.6070                23.8494                13.1093
 Raman Activ --     0.0000                 0.0000                 0.0000
 Depolar     --     0.0000                 0.0000                 0.0000
 Atom AN      X      Y      Z        X      Y      Z        X      Y      Z
   1   6    -0.25  -0.13   0.08    -0.01  -0.38   0.11     0.30   0.27  -0.12
   2   6    -0.23   0.01   0.04    -0.15   0.39  -0.08    -0.34   0.19   0.01
   3   6     0.36  -0.11  -0.03     0.19   0.07  -0.05     0.04  -0.26   0.06
   4   6     0.28  -0.09  -0.02    -0.27  -0.31   0.13     0.30   0.19  -0.11
   5   6     0.21   0.35  -0.13    -0.36   0.22  -0.00    -0.33   0.12   0.02
   6   6     0.28   0.13  -0.09     0.20  -0.03  -0.03    -0.02  -0.26   0.08
   7   8    -0.21  -0.18   0.08     0.08  -0.02  -0.01     0.06  -0.05   0.00
   8   8    -0.20   0.03   0.03     0.16  -0.00  -0.03    -0.10  -0.02   0.02
   9   1    -0.09  -0.08   0.04     0.07   0.05  -0.03    -0.06  -0.28   0.09
  10   1    -0.17   0.13  -0.01     0.10  -0.06  -0.00     0.16  -0.26   0.05
  11   1    -0.36  -0.09   0.09     0.18   0.04  -0.04     0.01  -0.08   0.02
  12   1    -0.07   0.03   0.00     0.13  -0.00  -0.02     0.03  -0.08   0.02
  13   1     0.02   0.05  -0.02     0.15   0.19  -0.08     0.09   0.12  -0.05
  14   1     0.07   0.00  -0.01    -0.19   0.00   0.03     0.11  -0.01  -0.02
                     28                     29                     30
                        a                      a                      a 
 Frequencies --  1502.5973              1596.8957              1603.4884
 Red. masses --    10.6185                11.4774                11.5911
 Frc consts  --     0.0000                 0.0000                 0.0000
 IR Inten    --   225.4299                11.9160                31.7554
 Raman Activ --     0.0000                 0.0000                 0.0000
 Depolar     --     0.0000                 0.0000                 0.0000
 Atom AN      X      Y      Z        X      Y      Z        X      Y      Z
   1   6     0.09  -0.17   0.03    -0.01   0.39  -0.10     0.24   0.26  -0.11
   2   6     0.07   0.17  -0.06     0.26  -0.43   0.07    -0.21  -0.03   0.04
   3   6    -0.38  -0.08   0.09    -0.15   0.18  -0.02     0.47   0.12  -0.11
   4   6     0.37  -0.26   0.01     0.03  -0.37   0.10    -0.32  -0.26   0.13
   5   6     0.31   0.34  -0.15    -0.28   0.41  -0.06     0.30   0.04  -0.06
   6   6    -0.36   0.00   0.06     0.18  -0.18   0.02    -0.47  -0.10   0.11
   7   8    -0.13  -0.12   0.05     0.01  -0.05   0.01    -0.03  -0.00   0.01
   8   8    -0.11   0.08  -0.00     0.01   0.03  -0.01     0.04   0.01  -0.01
   9   1     0.08   0.09  -0.04    -0.07  -0.06   0.03     0.00  -0.08   0.02
  10   1     0.11  -0.05  -0.00    -0.09   0.08  -0.01    -0.03  -0.04   0.02
  11   1     0.24   0.01  -0.04     0.02   0.05  -0.02    -0.11   0.01   0.02
  12   1     0.21   0.04  -0.05    -0.02  -0.05   0.02     0.11  -0.00  -0.02
  13   1    -0.01  -0.01   0.00     0.07   0.09  -0.04    -0.02  -0.03   0.01
  14   1    -0.08   0.02   0.01    -0.08   0.00   0.01    -0.07   0.00   0.01
                     31                     32                     33
                        a                      a                      a 
 Frequencies --  3059.1974              3089.6795              3100.5733
 Red. masses --     1.8129                 1.7816                 1.8740
 Frc consts  --     0.0000                 0.0000                 0.0000
 IR Inten    --    34.5186                13.6041                44.0623
 Raman Activ --     0.0000                 0.0000                 0.0000
 Depolar     --     0.0000                 0.0000                 0.0000
 Atom AN      X      Y      Z        X      Y      Z        X      Y      Z
   1   6     0.00   0.00  -0.00     0.18  -0.08  -0.01    -0.15   0.07   0.01
   2   6     0.03   0.02  -0.01    -0.13  -0.10   0.05    -0.16  -0.12   0.06
   3   6     0.04  -0.26   0.06     0.00  -0.03   0.01     0.01  -0.04   0.01
   4   6     0.01  -0.01   0.00     0.00   0.00  -0.00     0.00   0.00  -0.00
   5   6    -0.00   0.00  -0.00    -0.00   0.00  -0.00    -0.00  -0.00   0.00
   6   6    -0.00   0.00   0.00    -0.00   0.03  -0.01     0.01  -0.07   0.02
   7   8    -0.00  -0.00   0.00     0.00  -0.00  -0.00    -0.00   0.00  -0.00
   8   8    -0.00   0.00   0.00    -0.00  -0.00   0.00    -0.00  -0.00   0.00
   9   1    -0.00  -0.00   0.00    -0.66   0.28   0.04     0.53  -0.22  -0.03
  10   1    -0.12  -0.09   0.05     0.48   0.36  -0.18     0.54   0.40  -0.20
  11   1    -0.14   0.91  -0.23    -0.01   0.10  -0.02    -0.02   0.11  -0.03
  12   1     0.00  -0.00   0.00     0.02  -0.13   0.03    -0.04   0.28  -0.07
  13   1    -0.00   0.00  -0.00    -0.00   0.00  -0.00     0.00  -0.00  -0.00
  14   1    -0.01   0.00  -0.00    -0.00   0.00  -0.00    -0.00   0.00  -0.00
                     34                     35                     36
                        a                      a                      a 
 Frequencies --  3114.9523              3489.4799              3552.9209
 Red. masses --     1.8707                 1.8640                 1.8688
 Frc consts  --     0.0000                 0.0000                 0.0000
 IR Inten    --    17.3995                55.2377                26.8875
 Raman Activ --     0.0000                 0.0000                 0.0000
 Depolar     --     0.0000                 0.0000                 0.0000
 Atom AN      X      Y      Z        X      Y      Z        X      Y      Z
   1   6    -0.08   0.04   0.00     0.00  -0.00   0.00     0.00  -0.00   0.00
   2   6    -0.03  -0.03   0.01    -0.00   0.00   0.00    -0.00   0.00   0.00
   3   6     0.00  -0.01   0.00     0.00   0.00  -0.00     0.00  -0.00   0.00
   4   6     0.00  -0.00   0.00    -0.00  -0.00   0.00    -0.01   0.01  -0.00
   5   6     0.01   0.01  -0.00     0.01   0.00  -0.00     0.00   0.00  -0.00
   6   6    -0.04   0.25  -0.06    -0.00  -0.00   0.00    -0.00   0.00  -0.00
   7   8     0.00  -0.00   0.00     0.20  -0.14   0.00    -0.00  -0.00   0.00
   8   8    -0.00   0.00  -0.00     0.00   0.00  -0.00    -0.00   0.23  -0.06
   9   1     0.26  -0.11  -0.01    -0.00   0.00  -0.00    -0.00   0.00   0.00
  10   1     0.10   0.07  -0.04    -0.00   0.00  -0.00     0.00   0.00  -0.00
  11   1    -0.00   0.02  -0.01    -0.00  -0.00   0.00    -0.00   0.00  -0.00
  12   1     0.13  -0.87   0.22    -0.00   0.01  -0.00    -0.00   0.00   0.00
  13   1    -0.01   0.00   0.00    -0.81   0.53  -0.01     0.00  -0.00   0.00
  14   1     0.00   0.00  -0.00    -0.00  -0.00   0.00     0.03  -0.94   0.25
