14
 energy: -24.027986926990 gnorm: 0.000056530264 xtb: 6.7.1pre (5071a88)
C           -1.70511092845557        0.58805014836924        0.12886035115898
C           -1.49480578403876       -0.73792145947024        0.45730309177102
C           -0.21856868063171       -1.27434409986918        0.38730336889261
C            0.84361287338187       -0.48427133356796       -0.01064417385911
C            0.63418579113198        0.86042439275587       -0.34438017453783
C           -0.64603992451774        1.38556595171746       -0.27060213453395
O            1.67416734661895        1.64106135215557       -0.73595452326268
O            2.13562940296127       -0.95154817360967       -0.10232649664900
H           -2.69751676693153        1.00818128629366        0.18246605260147
H           -2.31829524254495       -1.36161869287851        0.76889233676051
H           -0.04551415582402       -2.31149536264657        0.64274786410300
H           -0.79048711458431        2.42173654116548       -0.53064950146854
H            2.47347221330586        1.09678748407747       -0.72256897500470
H            2.15527397012866       -1.88060703449263        0.14955191402820
