      -----------------------------------------------------------      
     |                   =====================                   |     
     |                           x T B                           |     
     |                   =====================                   |     
     |                         S. Grimme                         |     
     |          Mulliken Center for Theoretical Chemistry        |     
     |                    University of Bonn                     |     
      -----------------------------------------------------------      

   * xtb version 6.7.1pre (5071a88) compiled by 'Marcel@Raven' on 2024-07-23

   xtb is free software: you can redistribute it and/or modify it under
   the terms of the GNU Lesser General Public License as published by
   the Free Software Foundation, either version 3 of the License, or
   (at your option) any later version.
   
   xtb is distributed in the hope that it will be useful,
   but WITHOUT ANY WARRANTY; without even the implied warranty of
   MERCHANTABILITY or FITNESS FOR A PARTICULAR PURPOSE.  See the
   GNU Lesser General Public License for more details.
   
   Cite this work as:
   * C. Bannwarth, E. Caldeweyher, S. Ehlert, A. Hansen, P. Pracht,
     J. Seibert, S. Spicher, S. Grimme, WIREs Comput. Mol. Sci., 2020, 11,
     e01493. DOI: 10.1002/wcms.1493
   
   for GFN2-xTB:
   * C. Bannwarth, S. Ehlert and S. Grimme., J. Chem. Theory Comput., 2019,
     15, 1652-1671. DOI: 10.1021/acs.jctc.8b01176
   for GFN1-xTB:
   * S. Grimme, C. Bannwarth, P. Shushkov, J. Chem. Theory Comput., 2017,
     13, 1989-2009. DOI: 10.1021/acs.jctc.7b00118
   for GFN0-xTB:
   * P. Pracht, E. Caldeweyher, S. Ehlert, S. Grimme, ChemRxiv, 2019, preprint.
     DOI: 10.26434/chemrxiv.8326202.v1
   for GFN-FF:
   * S. Spicher and S. Grimme, Angew. Chem. Int. Ed., 2020, 59, 15665-15673.
     DOI: 10.1002/anie.202004239
   
   for ALPB and GBSA implicit solvation:
   * S. Ehlert, M. Stahn, S. Spicher, S. Grimme, J. Chem. Theory Comput.,
     2021, 17, 4250-4261. DOI: 10.1021/acs.jctc.1c00471
   
   for ddCOSMO and CPCM-X implicit solvation:
   * M. Stahn, S. Ehlert, S. Grimme, J. Phys. Chem. A,
     2023, XX, XXXX-XXXX. DOI: 10.1021/acs.jpca.3c04382
   
   for DFT-D4:
   * E. Caldeweyher, C. Bannwarth and S. Grimme, J. Chem. Phys., 2017,
     147, 034112. DOI: 10.1063/1.4993215
   * E. Caldeweyher, S. Ehlert, A. Hansen, H. Neugebauer, S. Spicher,
     C. Bannwarth and S. Grimme, J. Chem. Phys., 2019, 150, 154122.
     DOI: 10.1063/1.5090222
   * E. Caldeweyher, J.-M. Mewes, S. Ehlert and S. Grimme, Phys. Chem. Chem. Phys.
     2020, 22, 8499-8512. DOI: 10.1039/D0CP00502A
   
   for sTDA-xTB:
   * S. Grimme and C. Bannwarth, J. Chem. Phys., 2016, 145, 054103.
     DOI: 10.1063/1.4959605
   
   in the mass-spec context:
   * V. Asgeirsson, C. Bauer and S. Grimme, Chem. Sci., 2017, 8, 4879.
     DOI: 10.1039/c7sc00601b
   * J. Koopman and S. Grimme, ACS Omega 2019, 4, 12, 15120-15133.
     DOI: 10.1021/acsomega.9b02011
   
   for metadynamics refer to:
   * S. Grimme, J. Chem. Theory Comput., 2019, 155, 2847-2862
     DOI: 10.1021/acs.jctc.9b00143
   
   for SPH calculations refer to:
   * S. Spicher and S. Grimme, J. Chem. Theory Comput., 2021, 17, 1701-1714
     DOI: 10.1021/acs.jctc.0c01306
   
   for ONIOM refer to:
   * C. Plett, A. Katbashev, S. Ehlert, S. Grimme, M. Bursch,
     Phys. Chem. Chem. Phys., 2023, 25, 17860-17868. DOI: 10.1039/D3CP02178E
   
   for DIPRO refer to:
   * J. Kohn, N. Gildemeister, S. Grimme, D. Fazzi, A. Hansen,
     J. Chem. Phys., 2023, just accepted.
   
   for PTB refer to:
   * S. Grimme, M. Mueller, A. Hansen, J. Chem. Phys., 2023, 158, 124111.
     DOI: 10.1063/5.0137838
   
   with help from (in alphabetical order)
   P. Atkinson, C. Bannwarth, F. Bohle, G. Brandenburg, E. Caldeweyher
   M. Checinski, S. Dohm, S. Ehlert, S. Ehrlich, I. Gerasimov, C. Hölzer
   A. Katbashev, J. Kohn, J. Koopman, C. Lavigne, S. Lehtola, F. März, M. Müller,
   F. Musil, H. Neugebauer, J. Pisarek, C. Plett, P. Pracht, F. Pultar,
   J. Seibert, P. Shushkov, S. Spicher, M. Stahn, M. Steiner, T. Strunk,
   J. Stückrath, T. Rose, and J. Unsleber
   
 * started run on 2026/09/17 at 00:40:32.678     
   ID    Z sym.   atoms
    1    6 C      1-9
    2    1 H      10-27

           -------------------------------------------------
          |                Calculation Setup                |
           -------------------------------------------------

          program call               : C:\ORCA_6.1.1\xtb-6.7.1pre\xtb.exe input.xyz --gfn 2 --chrg 0 --uhf 0 --opt tight --json
          coordinate file            : input.xyz
          omp threads                :                     4


           -------------------------------------------------
          |                 G F N 2 - x T B                 |
           -------------------------------------------------

        Reference                      10.1021/acs.jctc.8b01176
      * Hamiltonian:
        H0-scaling (s, p, d)           1.850000    2.230000    2.230000
        zeta-weighting                 0.500000
      * Dispersion:
        s8                             2.700000
        a1                             0.520000
        a2                             5.000000
        s9                             5.000000
      * Repulsion:
        kExp                           1.500000    1.000000
        rExp                           1.000000
      * Coulomb:
        alpha                          2.000000
        third order                    shell-resolved
        anisotropic                    true
        a3                             3.000000
        a5                             4.000000
        cn-shift                       1.200000
        cn-exp                         4.000000
        max-rad                        5.000000

q/qsh data taken from xtbrestart
CAMM data taken from xtbrestart

          ...................................................
          :                      SETUP                      :
          :.................................................:
          :  # basis functions                  54          :
          :  # atomic orbitals                  54          :
          :  # shells                           36          :
          :  # electrons                        54          :
          :  max. iterations                   250          :
          :  Hamiltonian                  GFN2-xTB          :
          :  restarted?                       true          :
          :  GBSA solvation                  false          :
          :  PC potential                    false          :
          :  electronic temp.          300.0000000     K    :
          :  accuracy                    1.0000000          :
          :  -> integral cutoff          0.2500000E+02      :
          :  -> integral neglect         0.1000000E-07      :
          :  -> SCF convergence          0.1000000E-05 Eh   :
          :  -> wf. convergence          0.1000000E-03 e    :
          :  Broyden damping             0.4000000          :
          :  net charge                          0          :
          :  unpaired electrons                  0          :
          ...................................................

 iter      E             dE          RMSdq      gap      omega  full diag
   1    -28.8896985 -0.288897E+02  0.151E-01   12.37       0.0  T
   2    -28.8897092 -0.106804E-04  0.885E-02   12.37       1.0  T
   3    -28.8897104 -0.126217E-05  0.787E-03   12.38       2.4  T
   4    -28.8897105 -0.441197E-07  0.288E-03   12.38       6.7  T
   5    -28.8897105 -0.115685E-07  0.587E-04   12.38      32.8  T
   6    -28.8897105 -0.216469E-08  0.228E-04   12.38      84.4  T

   *** convergence criteria satisfied after 6 iterations ***

         #    Occupation            Energy/Eh            Energy/eV
      -------------------------------------------------------------
         1        2.0000           -0.6285023             -17.1024
       ...           ...                  ...                  ...
        21        2.0000           -0.4349614             -11.8359
        22        2.0000           -0.4323265             -11.7642
        23        2.0000           -0.4288578             -11.6698
        24        2.0000           -0.4201869             -11.4339
        25        2.0000           -0.4122700             -11.2184
        26        2.0000           -0.4070547             -11.0765
        27        2.0000           -0.4033049             -10.9745 (HOMO)
        28                          0.0514756               1.4007 (LUMO)
        29                          0.0737522               2.0069
        30                          0.0862199               2.3462
        31                          0.1025659               2.7910
        32                          0.1086340               2.9561
       ...                                ...                  ...
        54                          0.3118174               8.4850
      -------------------------------------------------------------
                  HL-Gap            0.4547805 Eh           12.3752 eV
             Fermi-level           -0.1759147 Eh           -4.7869 eV

 SCC (total)                   0 d,  0 h,  0 min,  0.008 sec
 SCC setup                      ...        0 min,  0.000 sec (  0.000%)
 Dispersion                     ...        0 min,  0.001 sec ( 12.499%)
 classical contributions        ...        0 min,  0.000 sec (  0.000%)
 integral evaluation            ...        0 min,  0.000 sec (  0.000%)
 iterations                     ...        0 min,  0.005 sec ( 62.502%)
 molecular gradient             ...        0 min,  0.002 sec ( 24.999%)
 printout                       ...        0 min,  0.000 sec (  0.000%)

         :::::::::::::::::::::::::::::::::::::::::::::::::::::
         ::                     SUMMARY                     ::
         :::::::::::::::::::::::::::::::::::::::::::::::::::::
         :: total energy             -28.480110380278 Eh    ::
         :: gradient norm              0.016559585180 Eh/a0 ::
         :: HOMO-LUMO gap             12.375206723417 eV    ::
         ::.................................................::
         :: SCC energy               -28.889652002716 Eh    ::
         :: -> isotropic ES            0.004140841688 Eh    ::
         :: -> anisotropic ES          0.008663933815 Eh    ::
         :: -> anisotropic XC          0.016682658512 Eh    ::
         :: -> dispersion             -0.019039210838 Eh    ::
         :: repulsion energy           0.409541622437 Eh    ::
         :: add. restraining           0.000000000000 Eh    ::
         :: total charge               0.000000000000 e     ::
         :::::::::::::::::::::::::::::::::::::::::::::::::::::

      ----------------------------------------------------------- 
     |                   =====================                   |
     |                        A N C O P T                        |
     |                   =====================                   |
     |               Approximate Normal Coordinate               |
     |                Rational Function Optimizer                |
      ----------------------------------------------------------- 
      ----------------------------------------------------------- 
     |                   =====================                   |
     |                        A N C O P T                        |
     |                   =====================                   |
     |               Approximate Normal Coordinate               |
     |                Rational Function Optimizer                |
      ----------------------------------------------------------- 

          ...................................................
          :                      SETUP                      :
          :.................................................:
          :   optimization level             tight          :
          :   max. optcycles                   200          :
          :   ANC micro-cycles                  20          :
          :   degrees of freedom                75          :
          :.................................................:
          :   RF solver                   davidson          :
          :   write xtbopt.log                true          :
          :   linear?                        false          :
          :   energy convergence         0.1000000E-05 Eh   :
          :   grad. convergence          0.8000000E-03 Eh/α :
          :   maxmium RF displ.          1.0000000          :
          :   Hlow (freq-cutoff)         0.1000000E-01      :
          :   Hmax (freq-cutoff)         5.0000000          :
          :   S6 in model hess.         20.0000000          :
          ...................................................

generating ANC from exact Hessian ...
Using Lindh-Hessian (1995)
 Shifting diagonal of input Hessian by   8.378920096968409E-003
 Lowest  eigenvalues of input Hessian
    0.000000    0.000000    0.000000    0.000000    0.000000    0.000000
    0.010000    0.010499    0.010740    0.014431    0.016911    0.017889
    0.018921    0.020741    0.022704    0.026467    0.031768    0.033424
 Highest eigenvalues
    1.204238    1.212728    1.226252    1.250440    1.274165    1.291976
 

........................................................................
.............................. CYCLE    1 ..............................
........................................................................

 iter      E             dE          RMSdq      gap      omega  full diag
   1    -28.8897105 -0.288897E+02  0.467E-05   12.38       0.0  T
   2    -28.8897105 -0.117737E-10  0.255E-05   12.38     755.6  T
   3    -28.8897105 -0.738964E-12  0.128E-05   12.38    1499.0  T
     SCC iter.                  ...        0 min,  0.002 sec
     gradient                   ...        0 min,  0.002 sec
 * total energy  :   -28.4801104 Eh     change       -0.3870682E-10 Eh
   gradient norm :     0.0165592 Eh/α   predicted     0.0000000E+00 (-100.00%)
   displ. norm   :     0.1498335 α      lambda       -0.1266465E-02
   maximum displ.:     0.0798149 α      in ANC's #10, #12, #9, ...

........................................................................
.............................. CYCLE    2 ..............................
........................................................................

 iter      E             dE          RMSdq      gap      omega  full diag
   1    -28.8993427 -0.288993E+02  0.893E-02   12.40       0.0  T
   2    -28.8993471 -0.431604E-05  0.514E-02   12.40       1.0  T
   3    -28.8993475 -0.406288E-06  0.496E-03   12.39       3.9  T
   4    -28.8993475 -0.287435E-07  0.162E-03   12.39      11.9  T
   5    -28.8993475 -0.336338E-08  0.618E-04   12.39      31.2  T
   6    -28.8993475 -0.132698E-08  0.135E-04   12.39     142.1  T
     SCC iter.                  ...        0 min,  0.003 sec
     gradient                   ...        0 min,  0.003 sec
 * total energy  :   -28.4809035 Eh     change       -0.7931464E-03 Eh
   gradient norm :     0.0059215 Eh/α   predicted    -0.6474498E-03 ( -18.37%)
   displ. norm   :     0.1262943 α      lambda       -0.3188858E-03
   maximum displ.:     0.0747478 α      in ANC's #10, #9, #6, ...

........................................................................
.............................. CYCLE    3 ..............................
........................................................................

 iter      E             dE          RMSdq      gap      omega  full diag
   1    -28.9036804 -0.289037E+02  0.380E-02   12.46       0.0  T
   2    -28.9036818 -0.133320E-05  0.219E-02   12.46       1.0  T
   3    -28.9036819 -0.995087E-07  0.320E-03   12.46       6.0  T
   4    -28.9036819 -0.809678E-08  0.824E-04   12.46      23.4  T
   5    -28.9036819 -0.144568E-08  0.274E-04   12.46      70.2  T
     SCC iter.                  ...        0 min,  0.002 sec
     gradient                   ...        0 min,  0.002 sec
 * total energy  :   -28.4811093 Eh     change       -0.2057369E-03 Eh
   gradient norm :     0.0018560 Eh/α   predicted    -0.1619887E-03 ( -21.26%)
   displ. norm   :     0.1492874 α      lambda       -0.1056186E-03
   maximum displ.:     0.0916195 α      in ANC's #9, #10, #1, ...

........................................................................
.............................. CYCLE    4 ..............................
........................................................................

 iter      E             dE          RMSdq      gap      omega  full diag
   1    -28.9042971 -0.289043E+02  0.346E-02   12.47       0.0  T
   2    -28.9042975 -0.359249E-06  0.207E-02   12.47       1.0  T
   3    -28.9042975 -0.621899E-07  0.158E-03   12.47      12.2  T
   4    -28.9042975 -0.691650E-08  0.666E-04   12.47      28.9  T
   5    -28.9042975 -0.111071E-08  0.151E-04   12.47     127.7  T
     SCC iter.                  ...        0 min,  0.003 sec
     gradient                   ...        0 min,  0.002 sec
 * total energy  :   -28.4811911 Eh     change       -0.8180837E-04 Eh
   gradient norm :     0.0024866 Eh/α   predicted    -0.5333283E-04 ( -34.81%)
   displ. norm   :     0.0343221 α      lambda       -0.2279209E-04
   maximum displ.:     0.0234302 α      in ANC's #1, #9, #3, ...

........................................................................
.............................. CYCLE    5 ..............................
........................................................................

 iter      E             dE          RMSdq      gap      omega  full diag
   1    -28.9034867 -0.289035E+02  0.106E-02   12.46       0.0  T
   2    -28.9034868 -0.562137E-07  0.610E-03   12.46       3.2  T
   3    -28.9034868 -0.241838E-08  0.620E-04   12.46      31.1  T
   4    -28.9034868 -0.186540E-08  0.181E-04   12.46     106.2  T
     SCC iter.                  ...        0 min,  0.003 sec
     gradient                   ...        0 min,  0.001 sec
 * total energy  :   -28.4812081 Eh     change       -0.1707481E-04 Eh
   gradient norm :     0.0011380 Eh/α   predicted    -0.1141723E-04 ( -33.13%)
   displ. norm   :     0.0702314 α      lambda       -0.1518660E-04
   maximum displ.:     0.0514521 α      in ANC's #1, #3, #9, ...

........................................................................
.............................. CYCLE    6 ..............................
........................................................................

 iter      E             dE          RMSdq      gap      omega  full diag
   1    -28.9023767 -0.289024E+02  0.155E-02   12.44       0.0  T
   2    -28.9023768 -0.121657E-06  0.896E-03   12.44       2.1  T
   3    -28.9023768 -0.616606E-08  0.915E-04   12.44      21.0  T
   4    -28.9023768 -0.357143E-08  0.270E-04   12.44      71.4  T
     SCC iter.                  ...        0 min,  0.002 sec
     gradient                   ...        0 min,  0.002 sec
 * total energy  :   -28.4812195 Eh     change       -0.1134805E-04 Eh
   gradient norm :     0.0010846 Eh/α   predicted    -0.7610732E-05 ( -32.93%)
   displ. norm   :     0.0292456 α      lambda       -0.4714297E-05
   maximum displ.:     0.0211067 α      in ANC's #1, #3, #7, ...

........................................................................
.............................. CYCLE    7 ..............................
........................................................................

 iter      E             dE          RMSdq      gap      omega  full diag
   1    -28.9026520 -0.289027E+02  0.599E-03   12.44       0.0  T
   2    -28.9026520 -0.452236E-08  0.353E-03   12.44       5.4  T
   3    -28.9026520 -0.678686E-09  0.178E-04   12.44     108.4  T
   4    -28.9026520 -0.248892E-09  0.796E-05   12.44     241.7  T
     SCC iter.                  ...        0 min,  0.001 sec
     gradient                   ...        0 min,  0.002 sec
 * total energy  :   -28.4812259 Eh     change       -0.6366914E-05 Eh
   gradient norm :     0.0008195 Eh/α   predicted    -0.2361471E-05 ( -62.91%)
   displ. norm   :     0.0698423 α      lambda       -0.1014399E-04
   maximum displ.:     0.0469662 α      in ANC's #1, #3, #9, ...

........................................................................
.............................. CYCLE    8 ..............................
........................................................................

 iter      E             dE          RMSdq      gap      omega  full diag
   1    -28.9031753 -0.289032E+02  0.136E-02   12.45       0.0  T
   2    -28.9031753 -0.295318E-07  0.802E-03   12.45       2.4  T
   3    -28.9031753 -0.360252E-08  0.401E-04   12.45      48.0  T
   4    -28.9031753 -0.797407E-09  0.180E-04   12.45     106.7  T
     SCC iter.                  ...        0 min,  0.001 sec
     gradient                   ...        0 min,  0.003 sec
 * total energy  :   -28.4812372 Eh     change       -0.1136733E-04 Eh
   gradient norm :     0.0003211 Eh/α   predicted    -0.5084126E-05 ( -55.27%)
   displ. norm   :     0.0847038 α      lambda       -0.7576446E-05
   maximum displ.:     0.0588846 α      in ANC's #1, #3, #7, ...

........................................................................
.............................. CYCLE    9 ..............................
........................................................................

 iter      E             dE          RMSdq      gap      omega  full diag
   1    -28.9032651 -0.289033E+02  0.166E-02   12.45       0.0  T
   2    -28.9032652 -0.125918E-07  0.987E-03   12.45       2.0  T
   3    -28.9032652 -0.406575E-08  0.369E-04   12.45      52.2  T
   4    -28.9032652 -0.847489E-09  0.192E-04   12.45     100.4  T
     SCC iter.                  ...        0 min,  0.001 sec
     gradient                   ...        0 min,  0.002 sec
 * total energy  :   -28.4812461 Eh     change       -0.8854415E-05 Eh
   gradient norm :     0.0005205 Eh/α   predicted    -0.3804234E-05 ( -57.04%)
   displ. norm   :     0.0774691 α      lambda       -0.5226514E-05
   maximum displ.:     0.0542304 α      in ANC's #1, #3, #7, ...

........................................................................
.............................. CYCLE   10 ..............................
........................................................................

 iter      E             dE          RMSdq      gap      omega  full diag
   1    -28.9031780 -0.289032E+02  0.138E-02   12.45       0.0  T
   2    -28.9031780 -0.956270E-08  0.823E-03   12.45       2.3  T
   3    -28.9031780 -0.347526E-08  0.314E-04   12.45      61.2  T
   4    -28.9031780 -0.257671E-09  0.157E-04   12.45     122.2  T
     SCC iter.                  ...        0 min,  0.002 sec
     gradient                   ...        0 min,  0.001 sec
 * total energy  :   -28.4812524 Eh     change       -0.6303765E-05 Eh
   gradient norm :     0.0002862 Eh/α   predicted    -0.2622770E-05 ( -58.39%)
   displ. norm   :     0.0709704 α      lambda       -0.3558348E-05
   maximum displ.:     0.0501882 α      in ANC's #3, #1, #2, ...

........................................................................
.............................. CYCLE   11 ..............................
........................................................................

 iter      E             dE          RMSdq      gap      omega  full diag
   1    -28.9030384 -0.289030E+02  0.134E-02   12.45       0.0  T
   2    -28.9030384 -0.106881E-07  0.797E-03   12.45       2.4  T
   3    -28.9030384 -0.270062E-08  0.320E-04   12.45      60.1  T
   4    -28.9030384 -0.661526E-09  0.164E-04   12.45     117.5  T
     SCC iter.                  ...        0 min,  0.002 sec
     gradient                   ...        0 min,  0.001 sec
 * total energy  :   -28.4812563 Eh     change       -0.3881047E-05 Eh
   gradient norm :     0.0002349 Eh/α   predicted    -0.1787802E-05 ( -53.94%)
   displ. norm   :     0.0544048 α      lambda       -0.1826702E-05
   maximum displ.:     0.0393414 α      in ANC's #3, #1, #2, ...

........................................................................
.............................. CYCLE   12 ..............................
........................................................................

 iter      E             dE          RMSdq      gap      omega  full diag
   1    -28.9029458 -0.289029E+02  0.103E-02   12.45       0.0  T
   2    -28.9029458 -0.596768E-08  0.614E-03   12.45       3.1  T
   3    -28.9029458 -0.137952E-08  0.268E-04   12.45      71.9  T
   4    -28.9029458 -0.608654E-09  0.131E-04   12.45     147.3  T
     SCC iter.                  ...        0 min,  0.002 sec
     gradient                   ...        0 min,  0.001 sec
 * total energy  :   -28.4812580 Eh     change       -0.1735485E-05 Eh
   gradient norm :     0.0002931 Eh/α   predicted    -0.9149935E-06 ( -47.28%)
   displ. norm   :     0.0527453 α      lambda        0.1018559E-05
   maximum displ.:     0.0380820 α      in ANC's #3, #1, #2, ...

........................................................................
.............................. CYCLE   13 ..............................
........................................................................

 iter      E             dE          RMSdq      gap      omega  full diag
   1    -28.9027958 -0.289028E+02  0.101E-02   12.45       0.0  T
   2    -28.9027958 -0.629783E-08  0.599E-03   12.45       3.2  T
   3    -28.9027958 -0.131051E-08  0.267E-04   12.45      72.2  T
   4    -28.9027958 -0.605997E-09  0.128E-04   12.45     150.0  T
     SCC iter.                  ...        0 min,  0.001 sec
     gradient                   ...        0 min,  0.002 sec
 * total energy  :   -28.4812577 Eh     change        0.3405300E-06 Eh
   gradient norm :     0.0007087 Eh/α   predicted     0.5089420E-06 (  49.46%)
   displ. norm   :     0.0124684 α      lambda       -0.1314709E-05
   maximum displ.:     0.0095406 α      in ANC's #1, #3, #7, ...

........................................................................
.............................. CYCLE   14 ..............................
........................................................................

 iter      E             dE          RMSdq      gap      omega  full diag
   1    -28.9029840 -0.289030E+02  0.490E-03   12.45       0.0  T
   2    -28.9029840 -0.356030E-08  0.288E-03   12.45       6.7  T
   3    -28.9029840  0.727205E-10  0.203E-04   12.45      94.7  T
   4    -28.9029840 -0.527880E-09  0.532E-05   12.45     361.5  T
     SCC iter.                  ...        0 min,  0.001 sec
     gradient                   ...        0 min,  0.003 sec
 * total energy  :   -28.4812588 Eh     change       -0.1183215E-05 Eh
   gradient norm :     0.0002013 Eh/α   predicted    -0.6580025E-06 ( -44.39%)
   displ. norm   :     0.0078929 α      lambda       -0.3338446E-06
   maximum displ.:     0.0061312 α      in ANC's #1, #7, #4, ...

........................................................................
.............................. CYCLE   15 ..............................
........................................................................

 iter      E             dE          RMSdq      gap      omega  full diag
   1    -28.9030673 -0.289031E+02  0.182E-03   12.45       0.0  T
   2    -28.9030673 -0.453493E-09  0.107E-03   12.45      17.9  T
   3    -28.9030673 -0.651674E-10  0.465E-05   12.45     414.2  T
   4    -28.9030673 -0.864020E-11  0.212E-05   12.45     908.2  T
     SCC iter.                  ...        0 min,  0.001 sec
     gradient                   ...        0 min,  0.002 sec
 * total energy  :   -28.4812592 Eh     change       -0.3660171E-06 Eh
   gradient norm :     0.0001201 Eh/α   predicted    -0.1711494E-06 ( -53.24%)
   displ. norm   :     0.0121874 α      lambda       -0.3926168E-06
   maximum displ.:     0.0071220 α      in ANC's #7, #3, #1, ...

   *** GEOMETRY OPTIMIZATION CONVERGED AFTER 15 ITERATIONS ***

------------------------------------------------------------------------
 total energy gain   :        -0.0011488 Eh       -0.7209 kcal/mol
 total RMSD          :         0.1379565 a0        0.0730 Å
 total power (kW/mol):        -0.2010839 (step)  -32.7854 (real)
------------------------------------------------------------------------

 ANCopt (total)                0 d,  0 h,  0 min,  0.092 sec
 optimizer setup                ...        0 min,  0.000 sec (  0.000%)
 model hessian                  ...        0 min,  0.017 sec ( 18.478%)
 ANC generation                 ...        0 min,  0.002 sec (  2.174%)
 coordinate transformation      ...        0 min,  0.000 sec (  0.000%)
 single point calculation       ...        0 min,  0.067 sec ( 72.826%)
 optimization log               ...        0 min,  0.005 sec (  5.435%)
 hessian update                 ...        0 min,  0.001 sec (  1.087%)
 rational function              ...        0 min,  0.000 sec (  0.000%)

================
 final structure:
================
27
 xtb: 6.7.1pre (5071a88)
C            3.82363029882805       -0.06254344903692       -0.39776364170391
C            2.44191720139669       -0.50551521883298        0.06872459491311
C            1.36938573689996        0.51296406300867       -0.31263061561213
C           -0.02111907385380        0.18848721227418        0.24364053351831
C           -0.96221358215085        1.37960088446647        0.04462065338113
C           -2.34843595902236        1.09035865386557        0.61210460484666
C           -2.94548148707719       -0.15002188559224       -0.04371886964866
C           -2.01823628560817       -1.34460689043477        0.15174695140772
C           -0.63205185770985       -1.04974740481501       -0.41477552981721
H            4.09589824837939        0.88628486906848        0.05991346244480
H            3.83845503555869        0.06338656640518       -1.47832427767150
H            4.57500912011185       -0.80137308337543       -0.12819347145760
H            2.44968987127379       -0.63109459849807        1.15404284853031
H            2.21063508343019       -1.47441146762334       -0.37675133573489
H            1.31311966798665        0.58732990047839       -1.40146969521630
H            1.67422050241646        1.49214581347338        0.06675220378319
H            0.07239115193043       -0.00088336314991        1.31960167099769
H           -1.04582634886443        1.59440926883200       -1.02362515778831
H           -0.54413567218873        2.26470005431222        0.52995658204932
H           -2.27145937642715        0.92784809817985        1.68994720363033
H           -3.00196319851105        1.95047330376691        0.44991896908540
H           -3.07942323393409        0.03398104180949       -1.11233875912692
H           -3.92701263154226       -0.36417457108017        0.38484106880984
H           -1.93289621965982       -1.56471384853459        1.21871051003588
H           -2.43745027148753       -2.22640138908107       -0.33811264935182
H            0.01270274150888       -1.91564260526037       -0.25637835652737
H           -0.70934946168373       -0.88083995462589       -1.49172249777667
 
 Bond Distances (Angstroems)
 ---------------------------
C1-C2=1.5241         C1-H10=1.0881        C1-H11=1.0880        C1-H12=1.0877        C2-C1=1.5241         C2-C3=1.5274         
C2-H13=1.0926        C2-H14=1.0912        C3-C2=1.5274         C3-C4=1.5324         C3-H15=1.0928        C3-H16=1.0935        
C4-C3=1.5324         C4-C5=1.5310         C4-C9=1.5297         C4-H17=1.0965        C5-C4=1.5310         C5-C6=1.5256         
C5-H18=1.0928        C5-H19=1.0926        C6-C5=1.5256         C6-C7=1.5248         C6-H20=1.0927        C6-H21=1.0923        
C7-C6=1.5248         C7-C8=1.5248         C7-H22=1.0926        C7-H23=1.0922        C8-C7=1.5248         C8-C9=1.5262         
C8-H24=1.0928        C8-H25=1.0924        C9-C4=1.5297         C9-C8=1.5262         C9-H26=1.0911        C9-H27=1.0928        
H10-C1=1.0881        H11-C1=1.0880        H12-C1=1.0877        H13-C2=1.0926        H14-C2=1.0912        H15-C3=1.0928        
H16-C3=1.0935        H17-C4=1.0965        H18-C5=1.0928        H19-C5=1.0926        H20-C6=1.0927        H21-C6=1.0923        
H22-C7=1.0926        H23-C7=1.0922        H24-C8=1.0928        H25-C8=1.0924        H26-C9=1.0911        H27-C9=1.0928        
 C  H  Rav=1.0919 sigma=0.0021  Rmin=1.0877  Rmax=1.0965    18
 C  C  Rav=1.5273 sigma=0.0028  Rmin=1.5241  Rmax=1.5324     9
 
 selected bond angles (degree)
 --------------------
H10-C1-C2=110.58               H11-C1-C2=110.49               H11-C1-H10=108.27              H12-C1-C2=110.67               
H12-C1-H10=108.37              H12-C1-H11=108.38              C3-C2-C1=111.49                H13-C2-C1=109.33               
H13-C2-C3=109.25               H14-C2-C1=108.98               H14-C2-C3=109.96               H14-C2-H13=107.76              
C4-C3-C2=113.91                H15-C3-C2=109.29               H15-C3-C4=109.23               H16-C3-C2=108.34               
H16-C3-C4=108.46               H16-C3-H15=107.40              C5-C4-C3=110.23                C9-C4-C3=112.18                
C9-C4-C5=109.17                H17-C4-C3=108.38               H17-C4-C5=108.32               H17-C4-C9=108.46               
C6-C5-C4=111.27                H18-C5-C4=109.09               H18-C5-C6=109.35               H19-C5-C4=109.71               
H19-C5-C6=109.64               H19-C5-H18=107.71              C7-C6-C5=110.49                H20-C6-C5=109.34               
H20-C6-C7=109.32               H21-C6-C5=109.82               H21-C6-C7=110.02               H21-C6-H20=107.80              
C8-C7-C6=110.12                H22-C7-C6=109.37               H22-C7-C8=109.38               H23-C7-C6=110.04               
H23-C7-C8=110.03               H23-C7-H22=107.86              C9-C8-C7=110.69                H24-C8-C7=109.30               
H24-C8-C9=109.29               H25-C8-C7=109.97               H25-C8-C9=109.76               H25-C8-H24=107.77              
C8-C9-C4=111.06                H26-C9-C4=110.11               H26-C9-C8=109.24               H27-C9-C4=109.10               
H27-C9-C8=109.35               H27-C9-H26=107.91              
 
 selected dihedral angles (degree)
 ---------------------------------
C3-C2-C1-H10= 60.46           C3-C2-C1-H11=300.61           C3-C2-C1-H12=180.56           H13-C2-C1-H10=299.56          
H13-C2-C1-H11=179.71          H13-C2-C1-H12= 59.66          H14-C2-C1-H10=182.01          H14-C2-C1-H11= 62.16          
H14-C2-C1-H12=302.11          C4-C3-C2-C1=185.45            C4-C3-C2-H13=306.39           C4-C3-C2-H14= 64.46           
H15-C3-C2-C1= 62.98           H15-C3-C2-H13=183.92          H15-C3-C2-H14=301.99          H16-C3-C2-C1=306.24           
H16-C3-C2-H13= 67.19          H16-C3-C2-H14=185.25          C5-C4-C3-C2=169.23            C5-C4-C3-H15=291.73           
C5-C4-C3-H16= 48.50           C9-C4-C3-C2=291.11            C9-C4-C3-H15= 53.61           C9-C4-C3-H16=170.38           
H17-C4-C3-C2= 50.84           H17-C4-C3-H15=173.34          H17-C4-C3-H16=290.11          C6-C5-C4-C3=180.97            
C6-C5-C4-C9= 57.32            C6-C5-C4-H17=299.40           H18-C5-C4-C3= 60.24           H18-C5-C4-C9=296.59           
H18-C5-C4-H17=178.67          H19-C5-C4-C3=302.47           H19-C5-C4-C9=178.82           H19-C5-C4-H17= 60.90          
C7-C6-C5-C4=302.05            C7-C6-C5-H18= 62.62           C7-C6-C5-H19=180.50           H20-C6-C5-C4= 62.41           
H20-C6-C5-H18=182.98          H20-C6-C5-H19=300.86          H21-C6-C5-C4=180.50           H21-C6-C5-H18=301.07          
H21-C6-C5-H19= 58.95          C8-C7-C6-C5= 57.18            C8-C7-C6-H20=296.81           C8-C7-C6-H21=178.61           
H22-C7-C6-C5=296.95           H22-C7-C6-H20=176.58          H22-C7-C6-H21= 58.38          H23-C7-C6-C5=178.64           
H23-C7-C6-H20= 58.27          H23-C7-C6-H21=300.07          C9-C8-C7-C6=302.71            C9-C8-C7-H22= 62.94           
C9-C8-C7-H23=181.25           H24-C8-C7-C6= 63.14           H24-C8-C7-H22=183.37          H24-C8-C7-H23=301.68          
H25-C8-C7-C6=181.26           H25-C8-C7-H22=301.49          H25-C8-C7-H23= 59.80          C8-C9-C4-C3=180.33            
C8-C9-C4-C5=302.82            C8-C9-C4-H17= 60.65           H26-C9-C4-C3= 59.19           H26-C9-C4-C5=181.68           
H26-C9-C4-H17=299.51          H27-C9-C4-C3=300.94           H27-C9-C4-C5= 63.43           H27-C9-C4-H17=181.26          
C4-C9-C8-C7= 57.96            C4-C9-C8-H24=297.53           C4-C9-C8-H25=179.54           H26-C9-C8-C7=179.61           
H26-C9-C8-H24= 59.18          H26-C9-C8-H25=301.19          H27-C9-C8-C7=297.50           H27-C9-C8-H24=177.07          
H27-C9-C8-H25= 59.08          
           -------------------------------------------------
          |                Final Singlepoint                |
           -------------------------------------------------

          ...................................................
          :                      SETUP                      :
          :.................................................:
          :  # basis functions                  54          :
          :  # atomic orbitals                  54          :
          :  # shells                           36          :
          :  # electrons                        54          :
          :  max. iterations                   250          :
          :  Hamiltonian                  GFN2-xTB          :
          :  restarted?                      false          :
          :  GBSA solvation                  false          :
          :  PC potential                    false          :
          :  electronic temp.          300.0000000     K    :
          :  accuracy                    1.0000000          :
          :  -> integral cutoff          0.2500000E+02      :
          :  -> integral neglect         0.1000000E-07      :
          :  -> SCF convergence          0.1000000E-05 Eh   :
          :  -> wf. convergence          0.1000000E-03 e    :
          :  Broyden damping             0.4000000          :
          :  net charge                          0          :
          :  unpaired electrons                  0          :
          ...................................................

 iter      E             dE          RMSdq      gap      omega  full diag
   1    -28.9030673 -0.289031E+02  0.938E-06   12.45       0.0  T
   2    -28.9030673 -0.994760E-13  0.530E-06   12.45    3633.2  T
   3    -28.9030673  0.213163E-13  0.171E-06   12.45   11261.5  T

   *** convergence criteria satisfied after 3 iterations ***

         #    Occupation            Energy/Eh            Energy/eV
      -------------------------------------------------------------
         1        2.0000           -0.6302997             -17.1513
       ...           ...                  ...                  ...
        21        2.0000           -0.4352404             -11.8435
        22        2.0000           -0.4324393             -11.7673
        23        2.0000           -0.4284600             -11.6590
        24        2.0000           -0.4207911             -11.4503
        25        2.0000           -0.4152600             -11.2998
        26        2.0000           -0.4063365             -11.0570
        27        2.0000           -0.4024545             -10.9513 (HOMO)
        28                          0.0549830               1.4962 (LUMO)
        29                          0.0798798               2.1736
        30                          0.0919588               2.5023
        31                          0.1055957               2.8734
        32                          0.1117249               3.0402
       ...                                ...                  ...
        54                          0.3242989               8.8246
      -------------------------------------------------------------
                  HL-Gap            0.4574375 Eh           12.4475 eV
             Fermi-level           -0.1737358 Eh           -4.7276 eV

 SCC (total)                   0 d,  0 h,  0 min,  0.005 sec
 SCC setup                      ...        0 min,  0.001 sec ( 20.003%)
 Dispersion                     ...        0 min,  0.000 sec (  0.000%)
 classical contributions        ...        0 min,  0.000 sec (  0.000%)
 integral evaluation            ...        0 min,  0.000 sec (  0.000%)
 iterations                     ...        0 min,  0.002 sec ( 39.996%)
 molecular gradient             ...        0 min,  0.002 sec ( 40.001%)
 printout                       ...        0 min,  0.000 sec (  0.000%)

         :::::::::::::::::::::::::::::::::::::::::::::::::::::
         ::                     SUMMARY                     ::
         :::::::::::::::::::::::::::::::::::::::::::::::::::::
         :: total energy             -28.481259212563 Eh    ::
         :: gradient norm              0.000120178722 Eh/a0 ::
         :: HOMO-LUMO gap             12.447508688802 eV    ::
         ::.................................................::
         :: SCC energy               -28.903011227561 Eh    ::
         :: -> isotropic ES            0.004338514532 Eh    ::
         :: -> anisotropic ES          0.008271427360 Eh    ::
         :: -> anisotropic XC          0.016396463072 Eh    ::
         :: -> dispersion             -0.019123449014 Eh    ::
         :: repulsion energy           0.421752014998 Eh    ::
         :: add. restraining           0.000000000000 Eh    ::
         :: total charge               0.000000000000 e     ::
         :::::::::::::::::::::::::::::::::::::::::::::::::::::

           -------------------------------------------------
          |                Property Printout                |
           -------------------------------------------------

    * Orbital Energies and Occupations

         #    Occupation            Energy/Eh            Energy/eV
      -------------------------------------------------------------
         1        2.0000           -0.6302997             -17.1513
       ...           ...                  ...                  ...
        15        2.0000           -0.4802391             -13.0680
        16        2.0000           -0.4746192             -12.9150
        17        2.0000           -0.4637533             -12.6194
        18        2.0000           -0.4601672             -12.5218
        19        2.0000           -0.4502118             -12.2509
        20        2.0000           -0.4419277             -12.0255
        21        2.0000           -0.4352404             -11.8435
        22        2.0000           -0.4324393             -11.7673
        23        2.0000           -0.4284600             -11.6590
        24        2.0000           -0.4207911             -11.4503
        25        2.0000           -0.4152600             -11.2998
        26        2.0000           -0.4063365             -11.0570
        27        2.0000           -0.4024545             -10.9513 (HOMO)
        28                          0.0549830               1.4962 (LUMO)
        29                          0.0798798               2.1736
        30                          0.0919588               2.5023
        31                          0.1055957               2.8734
        32                          0.1117249               3.0402
        33                          0.1173585               3.1935
        34                          0.1287247               3.5028
        35                          0.1391154               3.7855
        36                          0.1491058               4.0574
        37                          0.1575271               4.2865
        38                          0.1610220               4.3816
       ...                                ...                  ...
        54                          0.3242989               8.8246
      -------------------------------------------------------------
                  HL-Gap            0.4574375 Eh           12.4475 eV
             Fermi-level           -0.1737358 Eh           -4.7276 eV

     #   Z          covCN         q      C6AA      α(0)
     1   6 C        3.752    -0.102    22.506     6.765
     2   6 C        3.800    -0.052    21.511     6.604
     3   6 C        3.806    -0.063    21.709     6.633
     4   6 C        3.854    -0.019    20.878     6.499
     5   6 C        3.809    -0.058    21.618     6.618
     6   6 C        3.805    -0.054    21.545     6.608
     7   6 C        3.806    -0.055    21.561     6.610
     8   6 C        3.805    -0.054    21.546     6.608
     9   6 C        3.808    -0.059    21.621     6.619
    10   1 H        0.925     0.033     2.550     2.497
    11   1 H        0.925     0.033     2.545     2.495
    12   1 H        0.925     0.032     2.557     2.501
    13   1 H        0.924     0.028     2.614     2.528
    14   1 H        0.924     0.029     2.599     2.521
    15   1 H        0.924     0.029     2.599     2.521
    16   1 H        0.924     0.030     2.586     2.515
    17   1 H        0.924     0.027     2.623     2.533
    18   1 H        0.924     0.030     2.581     2.512
    19   1 H        0.924     0.024     2.667     2.554
    20   1 H        0.924     0.029     2.597     2.520
    21   1 H        0.924     0.025     2.655     2.548
    22   1 H        0.924     0.030     2.580     2.512
    23   1 H        0.924     0.024     2.667     2.554
    24   1 H        0.924     0.029     2.603     2.523
    25   1 H        0.924     0.025     2.660     2.551
    26   1 H        0.924     0.027     2.628     2.535
    27   1 H        0.924     0.031     2.579     2.511

 Mol. C6AA /au·bohr⁶  :       5009.650155
 Mol. C8AA /au·bohr⁸  :     105986.755341
 Mol. α(0) /au        :        104.995364


Wiberg/Mayer (AO) data.
largest (>0.10) Wiberg bond orders for each atom

 ---------------------------------------------------------------------------
     #   Z sym  total        # sym  WBO       # sym  WBO       # sym  WBO
 ---------------------------------------------------------------------------
     1   6 C    3.997 --     2 C    1.019    11 H    0.988    10 H    0.988
                            12 H    0.988
     2   6 C    3.998 --     1 C    1.019     3 C    1.008    13 H    0.978
                            14 H    0.976
     3   6 C    3.996 --     2 C    1.008     4 C    0.995    15 H    0.977
                            16 H    0.975
     4   6 C    3.996 --     9 C    0.998     5 C    0.996     3 C    0.995
                            17 H    0.967
     5   6 C    3.998 --     6 C    1.008     4 C    0.996    18 H    0.977
                            19 H    0.977
     6   6 C    3.998 --     7 C    1.009     5 C    1.008    20 H    0.978
                            21 H    0.978
     7   6 C    3.998 --     8 C    1.009     6 C    1.009    23 H    0.978
                            22 H    0.978
     8   6 C    3.998 --     7 C    1.009     9 C    1.008    25 H    0.978
                            24 H    0.978
     9   6 C    3.998 --     8 C    1.008     4 C    0.998    27 H    0.976
                            26 H    0.974
    10   1 H    0.999 --     1 C    0.988
    11   1 H    0.999 --     1 C    0.988
    12   1 H    0.999 --     1 C    0.988
    13   1 H    0.999 --     2 C    0.978
    14   1 H    0.999 --     2 C    0.976
    15   1 H    0.999 --     3 C    0.977
    16   1 H    0.999 --     3 C    0.975
    17   1 H    0.999 --     4 C    0.967
    18   1 H    0.999 --     5 C    0.977
    19   1 H    0.999 --     5 C    0.977
    20   1 H    0.999 --     6 C    0.978
    21   1 H    0.999 --     6 C    0.978
    22   1 H    0.999 --     7 C    0.978
    23   1 H    0.999 --     7 C    0.978
    24   1 H    0.999 --     8 C    0.978
    25   1 H    0.999 --     8 C    0.978
    26   1 H    0.999 --     9 C    0.974
    27   1 H    0.999 --     9 C    0.976
 ---------------------------------------------------------------------------

Topologies differ in total number of bonds
Writing topology from bond orders to xtbtopo.mol

molecular dipole:
                 x           y           z       tot (Debye)
 q only:        0.010      -0.002      -0.009
   full:        0.011       0.001      -0.011       0.039
molecular quadrupole (traceless):
                xx          xy          yy          xz          yz          zz
 q only:        0.177       0.002      -0.026      -0.059      -0.048      -0.151
  q+dip:       -1.803      -0.029      -0.295       0.597      -0.062       2.098
   full:       -0.829      -0.015      -0.176       0.273      -0.050       1.004

           -------------------------------------------------
          |                Geometry Summary                 |
           -------------------------------------------------

      molecular mass/u    :      126.2395566
   center of mass at/Å    :       -0.1126610       0.0051402      -0.0104261
  moments of inertia/u·Å² :        0.1340937E+03   0.6497569E+03   0.7381248E+03
rotational constants/cm⁻¹ :        0.1257153E+00   0.2594452E-01   0.2283846E-01

 * 27 selected distances

     #   Z          #   Z                                           value/Å
     1   6 C        2   6 C                                       1.5241282
     2   6 C        3   6 C                                       1.5274345
     3   6 C        4   6 C                                       1.5323925 (max)
     4   6 C        5   6 C                                       1.5310193
     5   6 C        6   6 C                                       1.5255530
     6   6 C        7   6 C                                       1.5248318
     7   6 C        8   6 C                                       1.5248030
     4   6 C        9   6 C                                       1.5296980
     8   6 C        9   6 C                                       1.5262364
     1   6 C       10   1 H                                       1.0880595
     1   6 C       11   1 H                                       1.0879750
     1   6 C       12   1 H                                       1.0877075 (min)
     2   6 C       13   1 H                                       1.0925871
     2   6 C       14   1 H                                       1.0911922
     3   6 C       15   1 H                                       1.0928252
     3   6 C       16   1 H                                       1.0934590
     4   6 C       17   1 H                                       1.0964935
     5   6 C       18   1 H                                       1.0928326
     5   6 C       19   1 H                                       1.0925845
     6   6 C       20   1 H                                       1.0927397
     6   6 C       21   1 H                                       1.0923367
     7   6 C       22   1 H                                       1.0925869
     7   6 C       23   1 H                                       1.0922127
     8   6 C       24   1 H                                       1.0927678
     8   6 C       25   1 H                                       1.0923665
     9   6 C       26   1 H                                       1.0911338
     9   6 C       27   1 H                                       1.0928493

 * 2 distinct bonds (by element types)

   Z      Z             #   av. dist./Å        max./Å        min./Å
   1 H    6 C          18     1.0919283     1.0964935     1.0877075
   6 C    6 C           9     1.5273441     1.5323925     1.5241282


optimized geometry written to: xtbopt.xyz


           -------------------------------------------------
          | TOTAL ENERGY              -28.481259212563 Eh   |
          | GRADIENT NORM               0.000120178722 Eh/α |
          | HOMO-LUMO GAP              12.447508688802 eV   |
           -------------------------------------------------

------------------------------------------------------------------------
 * finished run on 2026/09/17 at 00:40:32.914     
------------------------------------------------------------------------
 total:
 * wall-time:     0 d,  0 h,  0 min,  0.234 sec
 *  cpu-time:     0 d,  0 h,  0 min,  0.828 sec
 * ratio c/w:     3.539 speedup
 SCF:
 * wall-time:     0 d,  0 h,  0 min,  0.008 sec
 *  cpu-time:     0 d,  0 h,  0 min,  0.062 sec
 * ratio c/w:     7.813 speedup
 ANC optimizer:
 * wall-time:     0 d,  0 h,  0 min,  0.101 sec
 *  cpu-time:     0 d,  0 h,  0 min,  0.375 sec
 * ratio c/w:     3.713 speedup

