11
Coordinates from ORCA-job optfreq E -343.289584485339
  C      -1.499787      0.111753     -0.605195
  C      -1.458195     -0.525853      0.604701
  O      -0.212195     -0.597647      1.067884
  C       0.592140      0.000825      0.154479
  C      -0.169958      0.456049     -0.902210
  C       2.016010      0.067134      0.404897
  O       2.828289      0.571947     -0.330502
  H      -2.368636      0.306160     -1.199632
  H      -2.234656     -0.955483      1.208016
  H       0.200543      0.967645     -1.766533
  H       2.306445     -0.402531      1.364094
11
Coordinates from ORCA-job optfreq E -343.290743744190
  C      -1.504084      0.111259     -0.605326
  C      -1.467413     -0.527476      0.605668
  O      -0.209617     -0.598478      1.069431
  C       0.597211      0.005134      0.146544
  C      -0.167140      0.457638     -0.905225
  C       2.020458      0.064437      0.409667
  O       2.831897      0.576237     -0.334420
  H      -2.381761      0.306658     -1.203306
  H      -2.244213     -0.961582      1.218040
  H       0.208089      0.973502     -1.776532
  H       2.316573     -0.407329      1.375460
11
Coordinates from ORCA-job optfreq E -343.291027345332
  C      -1.505607      0.110932     -0.606236
  C      -1.471529     -0.527179      0.603962
  O      -0.206801     -0.597672      1.071296
  C       0.598989      0.010986      0.139726
  C      -0.166179      0.459673     -0.907772
  C       2.019424      0.064604      0.416570
  O       2.830231      0.574129     -0.335712
  H      -2.386049      0.304494     -1.203445
  H      -2.242453     -0.964215      1.222640
  H       0.210870      0.976163     -1.779650
  H       2.319104     -0.411913      1.378621
11
Coordinates from ORCA-job optfreq E -343.290985366992
  C      -1.506235      0.112920     -0.605767
  C      -1.472322     -0.525892      0.602382
  O      -0.204846     -0.601591      1.068925
  C       0.600298      0.006601      0.131927
  C      -0.166271      0.458254     -0.910660
  C       2.020114      0.050114      0.412346
  O       2.827939      0.583430     -0.327719
  H      -2.387814      0.308883     -1.199397
  H      -2.238479     -0.962686      1.226094
  H       0.211023      0.973915     -1.782138
  H       2.316592     -0.403947      1.384006
11
Coordinates from ORCA-job optfreq E -343.291069250037
  C      -1.506038      0.111506     -0.606718
  C      -1.471819     -0.525836      0.601574
  O      -0.205421     -0.597839      1.070236
  C       0.599204      0.012576      0.134349
  C      -0.167183      0.460258     -0.910015
  C       2.018190      0.060876      0.418327
  O       2.830015      0.573732     -0.330973
  H      -2.387013      0.304238     -1.201247
  H      -2.236266     -0.964427      1.225512
  H       0.209709      0.976061     -1.780885
  H       2.316623     -0.411142      1.379840
11
Coordinates from ORCA-job optfreq E -343.291072185307
  C      -1.506153      0.111583     -0.606780
  C      -1.471454     -0.525829      0.601616
  O      -0.205703     -0.597640      1.069679
  C       0.599138      0.012219      0.134520
  C      -0.167579      0.460216     -0.910113
  C       2.018430      0.060737      0.417600
  O       2.831198      0.573688     -0.330019
  H      -2.387152      0.304419     -1.201300
  H      -2.235658     -0.964537      1.225923
  H       0.209080      0.976069     -1.781124
  H       2.315853     -0.410923      1.379998
11
Coordinates from ORCA-job optfreq E -343.291073094677
  C      -1.506345      0.111680     -0.606943
  C      -1.471300     -0.525685      0.601410
  O      -0.205609     -0.597468      1.069136
  C       0.599178      0.012436      0.133922
  C      -0.167962      0.460324     -0.910528
  C       2.018393      0.060561      0.417545
  O       2.832171      0.573393     -0.328857
  H      -2.387503      0.304426     -1.201198
  H      -2.234376     -0.964782      1.226816
  H       0.208527      0.976177     -1.781592
  H       2.314827     -0.411061      1.380289
