 Entering Gaussian System
 *********************************************
 Gaussian 98:
 frequency output generated by the xtb code
 *********************************************
                         Standard orientation:
 --------------------------------------------------------------------
  Center     Atomic     Atomic              Coordinates (Angstroms)
  Number     Number      Type              X           Y           Z
 --------------------------------------------------------------------
    1          6             0        3.823629   -0.062564   -0.397777
    2          6             0        2.441915   -0.505528    0.068717
    3          6             0        1.369387    0.512956   -0.312636
    4          6             0       -0.021117    0.188488    0.243640
    5          6             0       -0.962206    1.379606    0.044622
    6          6             0       -2.348428    1.090372    0.612111
    7          6             0       -2.945483   -0.150007   -0.043708
    8          6             0       -2.018243   -1.344596    0.151756
    9          6             0       -0.632059   -1.049745   -0.414772
   10          1             0        4.095903    0.886264    0.059898
   11          1             0        3.838451    0.063364   -1.478338
   12          1             0        4.575005   -0.801397   -0.128208
   13          1             0        2.449691   -0.631105    1.154036
   14          1             0        2.210626   -1.474424   -0.376757
   15          1             0        1.313118    0.587321   -1.401475
   16          1             0        1.674229    1.492137    0.066744
   17          1             0        0.072396   -0.000881    1.319602
   18          1             0       -1.045822    1.594413   -1.023624
   19          1             0       -0.544122    2.264704    0.529955
   20          1             0       -2.271449    0.927863    1.689954
   21          1             0       -3.001952    1.950490    0.449926
   22          1             0       -3.079427    0.033995   -1.112328
   23          1             0       -3.927014   -0.364153    0.384855
   24          1             0       -1.932900   -1.564702    1.218720
   25          1             0       -2.437463   -2.226389   -0.338100
   26          1             0        0.012692   -1.915643   -0.256375
   27          1             0       -0.709359   -0.880839   -1.491719
 --------------------------------------------------------------------
     1 basis functions        1 primitive gaussians
     1 alpha electrons        1 beta electrons
 
 Harmonic frequencies (cm**-1), IR intensities (km*mol⁻¹),
 Raman scattering activities (A**4/amu), Raman depolarization ratios,
 reduced masses (AMU), force constants (mDyne/A) and normal coordinates:
                      1                      2                      3
                        a                      a                      a 
 Frequencies --    58.7115                73.4550               118.3540
 Red. masses --     5.7294                 8.6423                 8.7212
 Frc consts  --     0.0000                 0.0000                 0.0000
 IR Inten    --     0.0042                 0.0086                 0.0448
 Raman Activ --     0.0000                 0.0000                 0.0000
 Depolar     --     0.0000                 0.0000                 0.0000
 Atom AN      X      Y      Z        X      Y      Z        X      Y      Z
   1   6     0.03   0.13   0.24    -0.09  -0.11  -0.42     0.05   0.43  -0.03
   2   6    -0.09  -0.24  -0.46     0.01  -0.01  -0.03     0.18   0.00  -0.03
   3   6     0.00   0.04   0.04     0.01   0.12   0.33    -0.06  -0.28  -0.12
   4   6     0.00   0.04   0.04     0.01   0.04   0.29     0.02  -0.24   0.09
   5   6    -0.01   0.01  -0.09    -0.01   0.01   0.13     0.16  -0.12   0.15
   6   6    -0.02   0.05  -0.10    -0.13  -0.00  -0.19     0.07   0.07  -0.01
   7   6     0.01  -0.02   0.01     0.05  -0.02  -0.32    -0.03   0.22  -0.18
   8   6     0.02   0.01   0.15     0.01   0.01  -0.01    -0.27   0.06  -0.01
   9   6     0.04  -0.04   0.15     0.14  -0.02   0.29    -0.13  -0.21   0.17
  10   1    -0.02  -0.08   0.33     0.04  -0.05  -0.13    -0.08   0.15  -0.02
  11   1     0.08   0.31   0.10    -0.12  -0.02  -0.12     0.01   0.12  -0.01
  12   1    -0.01  -0.03  -0.07    -0.02  -0.06  -0.20     0.08   0.20   0.00
  13   1    -0.11  -0.31  -0.16     0.09  -0.03  -0.01     0.06   0.02  -0.01
  14   1     0.01   0.03  -0.37    -0.06   0.01  -0.01     0.13  -0.02   0.00
  15   1    -0.02   0.14   0.02    -0.02   0.11   0.10    -0.05  -0.15  -0.04
  16   1     0.04  -0.04   0.12     0.02   0.00   0.16    -0.04  -0.04  -0.11
  17   1    -0.00   0.04   0.02    -0.02   0.03   0.09     0.04  -0.07   0.02
  18   1     0.00  -0.03  -0.03     0.06   0.01   0.03     0.08  -0.00   0.05
  19   1    -0.01   0.02  -0.05    -0.04   0.00   0.07     0.07  -0.06   0.08
  20   1    -0.01   0.05  -0.02    -0.11   0.00  -0.05    -0.02  -0.01  -0.00
  21   1    -0.01   0.01  -0.06    -0.03  -0.00  -0.10     0.07   0.06  -0.00
  22   1     0.01  -0.04  -0.00     0.10  -0.02  -0.11     0.07   0.08  -0.06
  23   1     0.00   0.00  -0.00    -0.02  -0.00  -0.17    -0.05   0.11  -0.12
  24   1     0.00   0.04   0.05    -0.07   0.03   0.01    -0.13   0.03   0.00
  25   1     0.01  -0.01   0.07     0.04  -0.01  -0.01    -0.10   0.03  -0.01
  26   1     0.01  -0.00   0.08     0.03  -0.00   0.15    -0.08  -0.08   0.10
  27   1     0.02  -0.05   0.04     0.11  -0.04   0.07     0.01  -0.09   0.04
                      4                      5                      6
                        a                      a                      a 
 Frequencies --   188.2675               226.8806               235.5539
 Red. masses --     7.6906                 6.1590                 2.2249
 Frc consts  --     0.0000                 0.0000                 0.0000
 IR Inten    --     0.0643                 0.1268                 0.0055
 Raman Activ --     0.0000                 0.0000                 0.0000
 Depolar     --     0.0000                 0.0000                 0.0000
 Atom AN      X      Y      Z        X      Y      Z        X      Y      Z
   1   6     0.02  -0.19   0.16    -0.03  -0.03  -0.00    -0.01   0.04   0.01
   2   6    -0.17   0.06  -0.16    -0.04   0.06   0.04    -0.02  -0.12  -0.20
   3   6    -0.08   0.05  -0.43    -0.01   0.07  -0.00     0.02   0.06   0.17
   4   6     0.06   0.16   0.01    -0.01   0.10   0.01    -0.01   0.00   0.05
   5   6    -0.05   0.12   0.28    -0.10  -0.04  -0.30    -0.01  -0.02  -0.09
   6   6    -0.08  -0.13   0.12     0.17  -0.09   0.27     0.03   0.02   0.02
   7   6     0.11  -0.03  -0.24    -0.01   0.14   0.03    -0.01   0.02   0.05
   8   6     0.06  -0.00   0.04    -0.13  -0.02  -0.29    -0.01   0.00  -0.06
   9   6     0.11   0.02   0.21     0.14  -0.13   0.27     0.03  -0.01   0.03
  10   1    -0.02  -0.02  -0.02     0.05  -0.05   0.06    -0.26   0.26  -0.35
  11   1     0.12  -0.16   0.04    -0.04   0.07   0.01     0.18  -0.44  -0.05
  12   1    -0.04  -0.05   0.20    -0.03  -0.06  -0.08     0.08   0.26   0.46
  13   1    -0.12   0.05  -0.04    -0.01   0.03   0.01    -0.02  -0.13  -0.07
  14   1    -0.04   0.01  -0.03    -0.02   0.02   0.02     0.00   0.01  -0.15
  15   1    -0.08  -0.10  -0.13    -0.00   0.01  -0.00     0.01   0.14   0.06
  16   1     0.01   0.05  -0.24    -0.00   0.02  -0.01     0.02  -0.03   0.16
  17   1     0.11   0.06  -0.00    -0.01   0.11   0.02    -0.03   0.01   0.02
  18   1    -0.01   0.12   0.10    -0.14  -0.16  -0.11    -0.02  -0.05  -0.03
  19   1    -0.04   0.00   0.16    -0.01   0.06  -0.24     0.00   0.01  -0.07
  20   1    -0.05  -0.12   0.02     0.19  -0.13   0.05     0.03   0.01   0.00
  21   1    -0.04  -0.04   0.08     0.03  -0.01   0.25     0.01   0.01   0.02
  22   1     0.15   0.02  -0.08    -0.01   0.13   0.02    -0.03   0.02   0.02
  23   1    -0.02  -0.01  -0.18    -0.00   0.03   0.00     0.01   0.00   0.04
  24   1    -0.03   0.03   0.02    -0.14  -0.15  -0.10    -0.02  -0.03  -0.02
  25   1     0.05  -0.02   0.01    -0.03   0.07  -0.23    -0.01   0.02  -0.05
  26   1     0.04   0.03   0.13     0.01  -0.03   0.25     0.00  -0.01   0.03
  27   1     0.07  -0.05   0.05     0.18  -0.15   0.05     0.04  -0.01   0.01
                      7                      8                      9
                        a                      a                      a 
 Frequencies --   292.8438               320.8968               349.9655
 Red. masses --     9.4668                 6.9450                 7.9617
 Frc consts  --     0.0000                 0.0000                 0.0000
 IR Inten    --     0.0909                 0.0802                 0.2489
 Raman Activ --     0.0000                 0.0000                 0.0000
 Depolar     --     0.0000                 0.0000                 0.0000
 Atom AN      X      Y      Z        X      Y      Z        X      Y      Z
   1   6     0.53  -0.17   0.01     0.02   0.04  -0.02     0.08   0.08  -0.06
   2   6     0.30   0.22  -0.14     0.08  -0.18  -0.01     0.21  -0.29   0.07
   3   6     0.12   0.16  -0.01     0.02  -0.24  -0.12     0.17  -0.25   0.06
   4   6     0.05  -0.04   0.01     0.05   0.18   0.24    -0.01   0.23  -0.02
   5   6    -0.12  -0.13   0.04     0.00   0.13   0.08    -0.21   0.12  -0.13
   6   6    -0.20  -0.06  -0.03    -0.13   0.08  -0.17    -0.07  -0.23   0.14
   7   6    -0.32  -0.01   0.02    -0.16  -0.13   0.21    -0.08  -0.04  -0.20
   8   6    -0.23   0.06   0.00     0.01  -0.09  -0.28    -0.01   0.10   0.14
   9   6    -0.14   0.00   0.07     0.11   0.22   0.16    -0.11   0.28   0.01
  10   1     0.24  -0.08   0.01    -0.04   0.02   0.01    -0.05   0.05  -0.02
  11   1     0.23  -0.07   0.00    -0.01   0.03  -0.00    -0.03   0.03  -0.02
  12   1     0.05  -0.13   0.06     0.04   0.05  -0.02     0.10   0.09  -0.05
  13   1     0.08   0.05  -0.04     0.02  -0.04  -0.00     0.09  -0.10   0.02
  14   1     0.06   0.07  -0.04     0.07  -0.07   0.01     0.10  -0.09   0.01
  15   1     0.02   0.09   0.00    -0.06  -0.20  -0.04     0.07  -0.11   0.01
  16   1    -0.01   0.04   0.04     0.07  -0.03  -0.18     0.10  -0.07  -0.02
  17   1     0.03  -0.01   0.00     0.03   0.08   0.07    -0.03   0.10   0.00
  18   1    -0.03  -0.05   0.01     0.06   0.03   0.02    -0.13  -0.02  -0.04
  19   1    -0.06  -0.02   0.00    -0.05   0.05   0.04    -0.11   0.08  -0.09
  20   1    -0.08  -0.01  -0.00    -0.09   0.14  -0.03     0.07  -0.21   0.01
  21   1    -0.02   0.01  -0.02    -0.04  -0.00  -0.17    -0.05  -0.06   0.21
  22   1    -0.13  -0.01   0.01    -0.22  -0.06   0.08     0.08   0.01  -0.07
  23   1    -0.08  -0.01   0.04     0.03  -0.07   0.22    -0.07  -0.01  -0.15
  24   1    -0.08   0.02   0.00    -0.05  -0.21  -0.11     0.01   0.13   0.06
  25   1    -0.04   0.01  -0.00     0.05   0.04  -0.25     0.05  -0.04   0.12
  26   1    -0.07  -0.03   0.02     0.04   0.07   0.05    -0.00   0.09  -0.07
  27   1    -0.03  -0.00   0.02     0.10   0.10   0.05    -0.09   0.12   0.01
                     10                     11                     12
                        a                      a                      a 
 Frequencies --   432.8284               448.9153               468.0361
 Red. masses --     9.1962                 7.9433                 7.5146
 Frc consts  --     0.0000                 0.0000                 0.0000
 IR Inten    --     0.0349                 0.2643                 0.7505
 Raman Activ --     0.0000                 0.0000                 0.0000
 Depolar     --     0.0000                 0.0000                 0.0000
 Atom AN      X      Y      Z        X      Y      Z        X      Y      Z
   1   6     0.03  -0.01   0.00    -0.14  -0.01   0.04     0.22  -0.04  -0.01
   2   6    -0.02   0.10  -0.03    -0.16   0.10  -0.05     0.08   0.09  -0.11
   3   6    -0.04   0.08   0.05    -0.06   0.09  -0.07    -0.27  -0.15   0.07
   4   6    -0.06   0.11   0.02     0.24  -0.10   0.38    -0.24  -0.05   0.25
   5   6     0.26   0.28  -0.07     0.15  -0.37  -0.07    -0.15   0.01  -0.08
   6   6     0.35  -0.17  -0.17     0.14  -0.16  -0.07    -0.06   0.22   0.13
   7   6     0.07  -0.16  -0.02    -0.13   0.00  -0.09     0.37   0.06   0.01
   8   6    -0.27  -0.36   0.08     0.01   0.16   0.02     0.09  -0.18   0.01
   9   6    -0.33   0.11   0.13    -0.01   0.27   0.02    -0.06   0.05  -0.07
  10   1     0.03  -0.01  -0.00    -0.03  -0.01   0.02     0.11  -0.03   0.00
  11   1     0.03  -0.01  -0.00    -0.02  -0.00   0.01     0.12  -0.02  -0.00
  12   1    -0.02  -0.02   0.02    -0.06  -0.02   0.03    -0.00  -0.06   0.04
  13   1    -0.00   0.02  -0.01    -0.07   0.04  -0.01     0.04   0.02  -0.03
  14   1    -0.02   0.03  -0.02    -0.07   0.03  -0.01     0.05   0.02  -0.03
  15   1    -0.01   0.06   0.02    -0.12  -0.05  -0.02    -0.17  -0.11   0.02
  16   1    -0.02   0.02   0.05    -0.00   0.05  -0.11    -0.08  -0.01  -0.07
  17   1    -0.03   0.06   0.01     0.11  -0.03   0.10    -0.11  -0.01   0.07
  18   1     0.14   0.16  -0.01     0.05  -0.30  -0.06    -0.09  -0.16  -0.05
  19   1     0.04   0.04   0.08    -0.00   0.00  -0.18     0.01   0.07  -0.18
  20   1     0.17  -0.10  -0.06     0.05  -0.08  -0.03    -0.04   0.14   0.05
  21   1     0.04  -0.07   0.04     0.10   0.01   0.02    -0.06   0.01  -0.06
  22   1     0.04  -0.09  -0.02    -0.06  -0.01  -0.02     0.27   0.05  -0.01
  23   1    -0.01   0.09   0.00    -0.03   0.01   0.00     0.03   0.02  -0.17
  24   1    -0.13  -0.19   0.01     0.01   0.09   0.02     0.02  -0.13  -0.02
  25   1    -0.04  -0.06  -0.08     0.06   0.00   0.04    -0.02   0.01  -0.07
  26   1    -0.04   0.06  -0.07    -0.04   0.01  -0.20     0.05   0.04  -0.17
  27   1    -0.18   0.09   0.05    -0.07   0.28   0.04    -0.09   0.15   0.01
                     13                     14                     15
                        a                      a                      a 
 Frequencies --   573.6084               778.9738               820.7515
 Red. masses --     6.4728                 2.3786                 4.5452
 Frc consts  --     0.0000                 0.0000                 0.0000
 IR Inten    --     1.5182                 6.8620                 0.1125
 Raman Activ --     0.0000                 0.0000                 0.0000
 Depolar     --     0.0000                 0.0000                 0.0000
 Atom AN      X      Y      Z        X      Y      Z        X      Y      Z
   1   6    -0.13   0.01   0.02     0.01  -0.00  -0.03    -0.00   0.00   0.01
   2   6    -0.01  -0.10   0.08    -0.04  -0.10  -0.20     0.00   0.02   0.02
   3   6     0.34   0.18  -0.14    -0.11  -0.15  -0.12    -0.03  -0.03  -0.00
   4   6     0.27   0.05  -0.14    -0.03  -0.02  -0.01     0.02  -0.15  -0.07
   5   6    -0.07  -0.17   0.06     0.01  -0.02   0.01    -0.14  -0.12  -0.19
   6   6    -0.16   0.11   0.11     0.00  -0.01  -0.01    -0.17   0.09  -0.13
   7   6     0.11   0.01   0.06     0.02  -0.01  -0.01    -0.02   0.13   0.04
   8   6    -0.16  -0.21   0.07     0.06   0.05  -0.00     0.17   0.14   0.18
   9   6    -0.13   0.05   0.08     0.00   0.10   0.08     0.17  -0.06   0.17
  10   1    -0.09   0.02  -0.00    -0.14  -0.04   0.16     0.03   0.00  -0.02
  11   1    -0.10   0.02   0.01     0.21   0.13   0.01    -0.02  -0.02  -0.00
  12   1     0.03   0.06  -0.04    -0.00   0.02   0.08    -0.01  -0.01  -0.01
  13   1    -0.03  -0.01   0.02     0.08   0.47   0.01    -0.02  -0.03  -0.00
  14   1    -0.04  -0.02   0.03     0.02  -0.24   0.41     0.02   0.02  -0.03
  15   1     0.18   0.11  -0.04    -0.01   0.37  -0.00     0.02   0.01  -0.00
  16   1     0.11   0.01   0.05     0.03  -0.20   0.34    -0.05  -0.01   0.03
  17   1     0.17   0.02  -0.05     0.04   0.01  -0.00    -0.00   0.06   0.00
  18   1    -0.10  -0.14   0.00    -0.00  -0.02   0.00     0.12   0.26  -0.00
  19   1    -0.01   0.01  -0.10     0.01   0.00  -0.01    -0.02  -0.20   0.24
  20   1    -0.17   0.19   0.06    -0.01  -0.01  -0.00     0.17  -0.17  -0.08
  21   1    -0.01   0.02  -0.18     0.00  -0.00  -0.01    -0.05   0.07   0.25
  22   1     0.24   0.03  -0.01    -0.01  -0.01  -0.00     0.03  -0.05  -0.01
  23   1    -0.06   0.04  -0.19     0.01  -0.02   0.01    -0.00  -0.03  -0.02
  24   1    -0.13  -0.24  -0.01    -0.01  -0.01  -0.00    -0.13  -0.26  -0.00
  25   1    -0.04   0.04  -0.17     0.04   0.02  -0.03     0.05   0.20  -0.26
  26   1    -0.03  -0.01  -0.11     0.01   0.03   0.02     0.05  -0.07  -0.25
  27   1    -0.15   0.07   0.04     0.01   0.04   0.02    -0.18   0.19   0.09
                     16                     17                     18
                        a                      a                      a 
 Frequencies --   837.1303               876.6966               902.6038
 Red. masses --     7.1553                 3.7663                 7.0195
 Frc consts  --     0.0000                 0.0000                 0.0000
 IR Inten    --     0.7193                 0.7188                 2.9882
 Raman Activ --     0.0000                 0.0000                 0.0000
 Depolar     --     0.0000                 0.0000                 0.0000
 Atom AN      X      Y      Z        X      Y      Z        X      Y      Z
   1   6    -0.03  -0.04  -0.01     0.04   0.06   0.09     0.05  -0.06  -0.05
   2   6     0.01  -0.06  -0.05     0.01   0.04   0.11     0.02  -0.09   0.01
   3   6     0.18   0.15  -0.05    -0.12  -0.15  -0.19     0.04   0.17   0.05
   4   6     0.11  -0.03   0.24    -0.05  -0.04  -0.09    -0.08   0.04  -0.03
   5   6    -0.06   0.28   0.03    -0.01   0.03   0.15    -0.22  -0.13   0.09
   6   6    -0.14   0.25   0.00     0.02   0.06   0.02     0.10  -0.22  -0.14
   7   6    -0.02   0.06  -0.16     0.15   0.02  -0.20     0.48   0.10  -0.04
   8   6    -0.06  -0.26  -0.03     0.07  -0.02  -0.05    -0.00   0.23  -0.02
   9   6     0.09  -0.38  -0.07    -0.06   0.03   0.19    -0.19  -0.04   0.07
  10   1    -0.13  -0.01   0.06     0.25   0.04  -0.18    -0.17  -0.01   0.09
  11   1     0.04   0.06   0.01    -0.24  -0.14  -0.00     0.09   0.09   0.00
  12   1     0.05   0.05   0.01    -0.02  -0.06  -0.10     0.11   0.09   0.01
  13   1     0.03   0.09   0.00    -0.21  -0.11   0.01     0.11  -0.00   0.01
  14   1    -0.07  -0.04   0.09     0.21   0.03  -0.13    -0.15  -0.00   0.04
  15   1    -0.02  -0.01  -0.01     0.10   0.23  -0.03     0.00  -0.11   0.00
  16   1     0.11   0.04  -0.07    -0.08  -0.13   0.23    -0.00   0.10  -0.12
  17   1     0.07   0.00   0.06     0.12   0.02  -0.03    -0.03   0.01  -0.01
  18   1    -0.00  -0.06  -0.02    -0.13  -0.13   0.02    -0.10  -0.01   0.03
  19   1     0.01   0.13  -0.11     0.06   0.07  -0.13    -0.11  -0.02   0.04
  20   1     0.07  -0.15  -0.04    -0.10  -0.07  -0.00    -0.08  -0.06  -0.03
  21   1    -0.11   0.06   0.24     0.00   0.02   0.01    -0.02  -0.11  -0.12
  22   1    -0.21  -0.03  -0.02    -0.27  -0.03  -0.02    -0.18  -0.02   0.02
  23   1     0.07  -0.01   0.14     0.17  -0.04   0.22     0.26   0.01   0.28
  24   1    -0.01   0.09   0.03    -0.10   0.07   0.01    -0.10   0.03  -0.00
  25   1    -0.11  -0.12   0.15     0.06  -0.03   0.00    -0.09   0.13  -0.06
  26   1     0.04  -0.13  -0.25     0.06   0.04  -0.07    -0.09  -0.04  -0.00
  27   1    -0.08   0.10   0.02    -0.12   0.08   0.07    -0.12  -0.03   0.02
                     19                     20                     21
                        a                      a                      a 
 Frequencies --   932.3940               934.8333               946.1477
 Red. masses --     3.9375                 4.9617                 7.0629
 Frc consts  --     0.0000                 0.0000                 0.0000
 IR Inten    --     6.2374                 0.1376                 1.1477
 Raman Activ --     0.0000                 0.0000                 0.0000
 Depolar     --     0.0000                 0.0000                 0.0000
 Atom AN      X      Y      Z        X      Y      Z        X      Y      Z
   1   6    -0.09   0.01  -0.04    -0.17   0.05  -0.10     0.24  -0.12  -0.02
   2   6    -0.01   0.07  -0.03    -0.03   0.13  -0.06     0.01  -0.20   0.10
   3   6     0.04  -0.06   0.10     0.04  -0.15   0.22    -0.18   0.24  -0.04
   4   6     0.03  -0.06  -0.10     0.02   0.05  -0.25    -0.22   0.07  -0.12
   5   6     0.14   0.10   0.20     0.07  -0.04  -0.01     0.04  -0.23   0.09
   6   6    -0.13   0.15  -0.09     0.07   0.03   0.19     0.11   0.18   0.03
   7   6    -0.01  -0.07  -0.08    -0.12   0.02  -0.19    -0.18   0.07  -0.13
   8   6     0.12   0.08   0.19     0.05  -0.11  -0.01     0.07  -0.24   0.08
   9   6    -0.12   0.12  -0.10     0.12  -0.02   0.17     0.10   0.15   0.03
  10   1    -0.02  -0.03   0.05    -0.01  -0.06   0.11    -0.19   0.03   0.02
  11   1     0.12   0.02  -0.01     0.27   0.04  -0.02    -0.07   0.08   0.01
  12   1    -0.10  -0.04   0.08    -0.24  -0.11   0.18     0.32   0.19  -0.12
  13   1     0.11  -0.02  -0.01     0.22  -0.02  -0.02    -0.02  -0.04   0.03
  14   1    -0.05   0.03  -0.02    -0.07   0.05  -0.02    -0.11  -0.03   0.04
  15   1     0.04  -0.11   0.02     0.09  -0.19   0.04    -0.07   0.01  -0.02
  16   1    -0.02   0.02  -0.04    -0.03   0.02  -0.06    -0.08   0.10  -0.07
  17   1     0.02  -0.25  -0.07    -0.06   0.11  -0.04    -0.08  -0.02  -0.04
  18   1    -0.02  -0.27  -0.01    -0.17   0.07   0.03    -0.04  -0.05   0.03
  19   1     0.07   0.15  -0.22     0.13  -0.06  -0.01     0.12  -0.10   0.00
  20   1    -0.03  -0.25  -0.06    -0.16   0.10   0.07    -0.02  -0.04  -0.00
  21   1    -0.03   0.08   0.21     0.12   0.05  -0.13     0.18   0.17   0.05
  22   1    -0.03  -0.27  -0.06    -0.18   0.10  -0.01    -0.09  -0.04  -0.04
  23   1     0.02  -0.02   0.03     0.03  -0.05   0.06    -0.04   0.08   0.02
  24   1    -0.01  -0.26  -0.01    -0.16   0.08   0.03    -0.02  -0.06   0.03
  25   1     0.07   0.14  -0.21     0.14  -0.10   0.01     0.13  -0.10  -0.00
  26   1    -0.03   0.07   0.20     0.12   0.03  -0.15     0.17   0.15   0.04
  27   1    -0.03  -0.25  -0.07    -0.17   0.09   0.07    -0.03  -0.03   0.00
                     22                     23                     24
                        a                      a                      a 
 Frequencies --   973.4135               983.4771              1043.5389
 Red. masses --     6.9718                 7.0234                 3.9118
 Frc consts  --     0.0000                 0.0000                 0.0000
 IR Inten    --     0.2798                 7.4564                 0.5463
 Raman Activ --     0.0000                 0.0000                 0.0000
 Depolar     --     0.0000                 0.0000                 0.0000
 Atom AN      X      Y      Z        X      Y      Z        X      Y      Z
   1   6    -0.08   0.09   0.01     0.13  -0.05   0.02     0.06  -0.05  -0.13
   2   6    -0.00   0.00  -0.04    -0.03  -0.06   0.02    -0.03   0.03   0.19
   3   6     0.02  -0.08   0.03    -0.17   0.04   0.03    -0.24  -0.11  -0.07
   4   6    -0.02   0.23   0.03     0.04  -0.00  -0.03     0.11  -0.09  -0.09
   5   6    -0.21  -0.12   0.17     0.15   0.34   0.05    -0.10   0.12   0.09
   6   6     0.17  -0.15  -0.21     0.10  -0.26   0.06     0.02  -0.04  -0.13
   7   6    -0.05   0.29   0.05    -0.22  -0.06   0.01    -0.02   0.08   0.11
   8   6    -0.12  -0.16   0.19     0.04   0.27   0.14    -0.06  -0.06  -0.05
   9   6     0.27  -0.07  -0.21     0.20  -0.27  -0.05     0.12   0.03   0.06
  10   1     0.14  -0.01  -0.03    -0.05   0.02  -0.02    -0.13  -0.03   0.09
  11   1     0.02  -0.06  -0.00    -0.08   0.02   0.00     0.17   0.09  -0.02
  12   1    -0.15  -0.10   0.04     0.16   0.08  -0.08     0.05   0.05   0.05
  13   1    -0.01   0.04  -0.01    -0.07   0.01   0.01     0.17  -0.19   0.02
  14   1     0.16  -0.05   0.02    -0.03  -0.02   0.02    -0.18   0.11  -0.08
  15   1    -0.04   0.01   0.01    -0.13   0.02   0.01     0.29   0.00  -0.03
  16   1     0.14  -0.06   0.01    -0.05   0.01  -0.00    -0.38   0.01   0.13
  17   1    -0.03   0.01   0.00    -0.05  -0.01  -0.01     0.35   0.03  -0.04
  18   1    -0.10  -0.07   0.04    -0.14  -0.05  -0.01     0.01  -0.08  -0.00
  19   1    -0.20   0.04   0.02     0.02   0.19  -0.16    -0.14   0.12  -0.04
  20   1    -0.06  -0.11  -0.06    -0.18   0.07   0.05     0.06  -0.02  -0.04
  21   1     0.16   0.05  -0.06     0.04  -0.10  -0.21    -0.06  -0.05   0.01
  22   1     0.00  -0.07  -0.01     0.04   0.00  -0.01     0.08   0.00   0.01
  23   1    -0.05   0.34   0.07    -0.09  -0.02  -0.08    -0.06   0.17  -0.02
  24   1     0.02  -0.14   0.02    -0.15  -0.12   0.01     0.12   0.03  -0.01
  25   1    -0.17   0.05   0.01     0.02   0.17  -0.17    -0.05  -0.04   0.07
  26   1     0.20   0.08  -0.05     0.01  -0.13  -0.21    -0.00  -0.03  -0.04
  27   1     0.05  -0.04  -0.06    -0.15   0.01   0.01     0.15   0.16   0.03
                     25                     26                     27
                        a                      a                      a 
 Frequencies --  1071.4720              1084.2536              1096.0275
 Red. masses --     2.1478                 7.9157                 7.1172
 Frc consts  --     0.0000                 0.0000                 0.0000
 IR Inten    --     0.1152                 0.6370                 0.1878
 Raman Activ --     0.0000                 0.0000                 0.0000
 Depolar     --     0.0000                 0.0000                 0.0000
 Atom AN      X      Y      Z        X      Y      Z        X      Y      Z
   1   6     0.11   0.07  -0.05    -0.32  -0.28   0.20    -0.08   0.03  -0.00
   2   6    -0.14  -0.03   0.04     0.45   0.25  -0.20     0.09  -0.05   0.03
   3   6    -0.01  -0.03   0.02     0.11  -0.05  -0.04     0.06   0.07  -0.09
   4   6     0.02   0.08   0.00    -0.05  -0.21   0.02    -0.14   0.04   0.11
   5   6     0.08  -0.06  -0.02    -0.08   0.10  -0.04    -0.24   0.02   0.15
   6   6     0.01   0.08   0.05     0.06  -0.03   0.01     0.31   0.11  -0.08
   7   6     0.03  -0.12  -0.02    -0.02   0.03  -0.02    -0.19  -0.05  -0.02
   8   6    -0.05   0.07  -0.03    -0.00  -0.01   0.03     0.33   0.05  -0.11
   9   6    -0.07  -0.06  -0.00     0.03   0.10   0.04    -0.28  -0.21   0.08
  10   1     0.07   0.01  -0.02    -0.26  -0.02   0.04     0.03  -0.01   0.01
  11   1     0.06   0.01  -0.01    -0.26  -0.01   0.06     0.03  -0.02  -0.00
  12   1     0.00  -0.00   0.00     0.07   0.06  -0.04    -0.08  -0.04   0.04
  13   1    -0.05  -0.01   0.01     0.08   0.07  -0.05     0.08  -0.04   0.00
  14   1    -0.07  -0.00   0.01     0.07   0.08  -0.06     0.04  -0.01  -0.01
  15   1     0.02  -0.01   0.01    -0.05   0.04  -0.01     0.09   0.03  -0.03
  16   1     0.05  -0.02   0.00    -0.15   0.03   0.01     0.03   0.01   0.00
  17   1    -0.03   0.36   0.06    -0.11   0.00   0.02     0.05   0.04   0.03
  18   1    -0.26   0.12   0.05    -0.20   0.10   0.02    -0.06  -0.03   0.03
  19   1     0.25  -0.11  -0.02     0.07  -0.02  -0.01    -0.23   0.09   0.03
  20   1    -0.24  -0.18   0.00    -0.11  -0.04   0.01     0.15   0.10  -0.02
  21   1     0.15   0.13   0.03     0.01  -0.02  -0.04     0.29   0.19  -0.02
  22   1     0.05  -0.37  -0.07     0.00  -0.11  -0.03     0.06   0.00  -0.02
  23   1    -0.00   0.04   0.01    -0.02   0.18   0.04    -0.07  -0.07  -0.11
  24   1     0.28  -0.09  -0.06     0.09  -0.04  -0.01     0.16  -0.05  -0.05
  25   1    -0.18   0.08   0.02     0.05  -0.02  -0.01     0.23  -0.04  -0.07
  26   1    -0.23  -0.18  -0.03    -0.03  -0.00   0.03    -0.18  -0.15  -0.03
  27   1     0.23   0.19   0.01     0.13   0.09   0.01    -0.12  -0.04   0.03
                     28                     29                     30
                        a                      a                      a 
 Frequencies --  1107.0499              1124.1132              1131.6822
 Red. masses --     6.6774                 7.2754                 6.5112
 Frc consts  --     0.0000                 0.0000                 0.0000
 IR Inten    --     0.4037                 0.5765                 1.8322
 Raman Activ --     0.0000                 0.0000                 0.0000
 Depolar     --     0.0000                 0.0000                 0.0000
 Atom AN      X      Y      Z        X      Y      Z        X      Y      Z
   1   6    -0.21  -0.04   0.01    -0.07  -0.10   0.09    -0.09   0.13  -0.00
   2   6     0.30  -0.10   0.07     0.17   0.02  -0.07     0.14  -0.33   0.09
   3   6    -0.08   0.20  -0.18    -0.35  -0.06   0.19    -0.23   0.32  -0.01
   4   6    -0.35   0.19   0.03     0.46   0.26  -0.12     0.13  -0.17  -0.07
   5   6     0.23  -0.10   0.07     0.03  -0.09  -0.05    -0.15   0.05  -0.00
   6   6    -0.07  -0.04  -0.01    -0.06   0.10   0.04     0.11   0.11   0.02
   7   6     0.00  -0.10   0.06     0.07  -0.03  -0.04     0.03  -0.15  -0.04
   8   6    -0.07   0.14  -0.03    -0.03  -0.06  -0.02    -0.15   0.05   0.02
   9   6     0.06  -0.12  -0.00    -0.09  -0.04  -0.09     0.12   0.11  -0.01
  10   1    -0.04  -0.04   0.06    -0.07  -0.00  -0.00     0.17  -0.02  -0.01
  11   1     0.05  -0.01   0.01    -0.11  -0.01   0.02     0.07  -0.07  -0.01
  12   1    -0.12  -0.05   0.07     0.05   0.02  -0.03    -0.18  -0.11   0.06
  13   1     0.23  -0.11   0.01     0.10   0.01  -0.01     0.18  -0.07   0.03
  14   1     0.18  -0.03  -0.03     0.10  -0.02   0.01     0.20  -0.15   0.07
  15   1     0.14   0.08  -0.05    -0.29   0.01   0.06    -0.20   0.03  -0.00
  16   1    -0.04   0.04  -0.00    -0.13   0.01   0.02     0.01   0.09  -0.09
  17   1     0.02   0.13   0.01     0.21   0.13  -0.03     0.09  -0.13  -0.04
  18   1     0.17  -0.14  -0.02     0.01   0.06   0.00    -0.14   0.07   0.02
  19   1     0.13  -0.02  -0.05    -0.21   0.04   0.07     0.13  -0.06  -0.01
  20   1     0.01  -0.04  -0.01     0.01  -0.01   0.00     0.09   0.07   0.01
  21   1     0.02   0.02   0.03     0.17   0.17   0.05    -0.15  -0.10  -0.00
  22   1     0.05  -0.03   0.01    -0.03  -0.01  -0.00     0.01  -0.12  -0.02
  23   1     0.01  -0.25  -0.08     0.06  -0.23  -0.01    -0.02   0.18   0.04
  24   1    -0.02   0.03  -0.01    -0.01   0.00  -0.00    -0.11   0.04   0.02
  25   1    -0.29   0.14   0.03    -0.13   0.02   0.03     0.17  -0.07  -0.03
  26   1     0.19   0.09  -0.07    -0.04  -0.01   0.02    -0.13  -0.09   0.00
  27   1    -0.02   0.08   0.02    -0.08  -0.14  -0.04     0.09   0.04  -0.00
                     31                     32                     33
                        a                      a                      a 
 Frequencies --  1145.7843              1177.5988              1201.6714
 Red. masses --     7.2037                 7.6634                 5.0208
 Frc consts  --     0.0000                 0.0000                 0.0000
 IR Inten    --     0.2214                 0.5610                 0.2617
 Raman Activ --     0.0000                 0.0000                 0.0000
 Depolar     --     0.0000                 0.0000                 0.0000
 Atom AN      X      Y      Z        X      Y      Z        X      Y      Z
   1   6     0.04  -0.04  -0.01     0.02  -0.03   0.11     0.02   0.10   0.01
   2   6    -0.08   0.13  -0.03    -0.02   0.05  -0.20    -0.05  -0.16  -0.03
   3   6     0.11  -0.14   0.00    -0.01  -0.04   0.24     0.08   0.15   0.04
   4   6    -0.04  -0.04   0.02    -0.05   0.13  -0.32     0.05  -0.33  -0.11
   5   6    -0.24  -0.01   0.10     0.01  -0.08   0.29     0.01   0.17  -0.07
   6   6     0.25   0.22   0.02    -0.01   0.06  -0.27    -0.02  -0.08  -0.09
   7   6     0.05  -0.36  -0.07     0.01  -0.08   0.26    -0.00   0.09   0.12
   8   6    -0.29   0.15   0.06    -0.04   0.08  -0.26     0.02  -0.07  -0.12
   9   6     0.23   0.08  -0.08     0.04  -0.07   0.22    -0.02   0.12   0.25
  10   1    -0.05   0.01   0.00     0.01   0.03  -0.05     0.10   0.01  -0.03
  11   1    -0.02   0.03   0.00    -0.14  -0.03   0.02     0.01  -0.04  -0.01
  12   1     0.06   0.04  -0.02     0.06   0.02  -0.06    -0.06  -0.04   0.00
  13   1    -0.09   0.03  -0.01    -0.03   0.13  -0.03    -0.04   0.05   0.00
  14   1    -0.08   0.05  -0.02     0.02  -0.04   0.05     0.01  -0.08   0.06
  15   1     0.10  -0.03  -0.00    -0.07  -0.13   0.05    -0.09  -0.05   0.01
  16   1     0.00  -0.04   0.03     0.10   0.01  -0.08    -0.09   0.10  -0.07
  17   1    -0.03  -0.13  -0.01     0.01   0.04  -0.08    -0.09  -0.28  -0.05
  18   1    -0.09   0.01   0.03    -0.05  -0.18   0.04    -0.17   0.08   0.00
  19   1    -0.08   0.01   0.03     0.15   0.00  -0.11    -0.17   0.12  -0.02
  20   1     0.24   0.16   0.01     0.15  -0.10  -0.09    -0.14  -0.12  -0.03
  21   1     0.13   0.11   0.02    -0.13  -0.06   0.10     0.25   0.18   0.00
  22   1     0.03  -0.21  -0.04     0.18   0.00   0.04     0.06   0.04   0.02
  23   1     0.03  -0.25  -0.05    -0.08   0.11  -0.08     0.01  -0.26  -0.08
  24   1    -0.28   0.08   0.04     0.03   0.17  -0.03     0.14   0.04  -0.02
  25   1    -0.15   0.08   0.01     0.06  -0.08   0.07    -0.28   0.05   0.11
  26   1     0.08   0.04  -0.02     0.00  -0.05  -0.12     0.18   0.16   0.01
  27   1     0.09   0.06  -0.02    -0.12   0.09   0.08     0.03   0.12   0.08
                     34                     35                     36
                        a                      a                      a 
 Frequencies --  1227.1264              1243.9685              1251.1035
 Red. masses --     4.7721                 3.1223                 3.6337
 Frc consts  --     0.0000                 0.0000                 0.0000
 IR Inten    --     1.0983                 0.1877                 1.1640
 Raman Activ --     0.0000                 0.0000                 0.0000
 Depolar     --     0.0000                 0.0000                 0.0000
 Atom AN      X      Y      Z        X      Y      Z        X      Y      Z
   1   6    -0.05  -0.09  -0.25     0.01  -0.05  -0.06    -0.00   0.02   0.02
   2   6     0.07   0.12   0.33    -0.04   0.08   0.06     0.03  -0.01   0.00
   3   6     0.02  -0.06  -0.16    -0.01  -0.01   0.07    -0.00  -0.02  -0.03
   4   6     0.13   0.01   0.07     0.09  -0.03   0.01     0.02  -0.04   0.02
   5   6     0.01  -0.02   0.02    -0.15  -0.00   0.03    -0.03   0.02   0.17
   6   6    -0.02   0.03  -0.14     0.15   0.01   0.02     0.02  -0.04  -0.30
   7   6     0.04  -0.04   0.20    -0.17   0.02  -0.19    -0.03   0.09   0.02
   8   6    -0.03   0.03  -0.15     0.14   0.02  -0.02     0.03  -0.14   0.23
   9   6     0.00  -0.00   0.01    -0.14  -0.03   0.10    -0.01   0.08  -0.15
  10   1    -0.17  -0.07   0.14    -0.07  -0.02   0.03     0.03   0.01  -0.01
  11   1     0.24   0.12  -0.04     0.05   0.04  -0.01    -0.02  -0.02   0.00
  12   1    -0.01   0.04   0.11     0.03   0.03   0.02    -0.01  -0.01  -0.00
  13   1    -0.21  -0.16   0.06    -0.06  -0.02   0.01     0.05  -0.02  -0.00
  14   1     0.14   0.10  -0.15     0.10   0.02  -0.04    -0.10   0.02   0.00
  15   1    -0.29   0.19  -0.01    -0.12  -0.00   0.03    -0.04   0.03  -0.00
  16   1     0.11  -0.08   0.07     0.15  -0.04  -0.01     0.01  -0.01   0.00
  17   1    -0.21  -0.02   0.03     0.23  -0.06  -0.02    -0.01   0.18   0.04
  18   1    -0.20   0.07   0.03    -0.14   0.06   0.03    -0.31   0.02   0.07
  19   1     0.05  -0.02  -0.02     0.24  -0.12  -0.02     0.25  -0.05  -0.09
  20   1    -0.06  -0.14  -0.05     0.22   0.21   0.02     0.15  -0.03  -0.09
  21   1     0.04   0.06   0.06    -0.23  -0.21  -0.07    -0.03  -0.02   0.03
  22   1     0.12  -0.00   0.04    -0.07  -0.03  -0.05    -0.06   0.49   0.09
  23   1    -0.04   0.02  -0.05    -0.03  -0.00  -0.01     0.04  -0.36  -0.08
  24   1    -0.12   0.14   0.00     0.33  -0.13  -0.06    -0.11  -0.09   0.06
  25   1     0.08  -0.07   0.03    -0.33   0.16   0.02    -0.01   0.02  -0.02
  26   1     0.06   0.04  -0.01     0.24   0.20   0.03    -0.15  -0.07   0.06
  27   1    -0.18  -0.13  -0.01    -0.12  -0.06   0.03     0.21   0.05  -0.05
                     37                     38                     39
                        a                      a                      a 
 Frequencies --  1263.1350              1278.4952              1284.3082
 Red. masses --     3.5497                 2.9716                 2.6535
 Frc consts  --     0.0000                 0.0000                 0.0000
 IR Inten    --     0.3631                 0.7342                 0.2867
 Raman Activ --     0.0000                 0.0000                 0.0000
 Depolar     --     0.0000                 0.0000                 0.0000
 Atom AN      X      Y      Z        X      Y      Z        X      Y      Z
   1   6    -0.04  -0.08  -0.15    -0.01   0.13   0.00    -0.01  -0.07  -0.09
   2   6     0.07   0.04   0.09     0.11  -0.18  -0.01    -0.07  -0.03  -0.10
   3   6     0.01   0.03   0.08     0.17  -0.03  -0.07     0.00   0.13   0.18
   4   6    -0.04   0.02  -0.30     0.13  -0.02  -0.02     0.03  -0.12   0.11
   5   6     0.06  -0.02   0.12     0.10  -0.11   0.14     0.01   0.01  -0.02
   6   6    -0.04  -0.02   0.07     0.02   0.09   0.00     0.02   0.03  -0.04
   7   6     0.01   0.05  -0.16    -0.04  -0.04  -0.07     0.01  -0.03   0.05
   8   6    -0.04  -0.06   0.13     0.04   0.03  -0.03     0.01   0.05   0.02
   9   6     0.03   0.02   0.11    -0.02  -0.01  -0.02    -0.12  -0.05  -0.14
  10   1    -0.12  -0.05   0.09     0.09   0.01  -0.01    -0.08  -0.03   0.04
  11   1     0.13   0.07  -0.02     0.01  -0.06  -0.01     0.08   0.05  -0.02
  12   1    -0.01   0.02   0.06    -0.11  -0.07   0.02     0.02   0.02   0.01
  13   1    -0.33   0.01   0.02    -0.12   0.06   0.01    -0.37   0.14  -0.00
  14   1     0.27  -0.02  -0.05    -0.25  -0.00   0.05     0.47  -0.16   0.04
  15   1    -0.13  -0.01   0.02    -0.12   0.06  -0.01     0.33  -0.21   0.01
  16   1     0.06   0.02  -0.05    -0.48   0.13   0.04    -0.24   0.14  -0.05
  17   1    -0.20  -0.03  -0.06    -0.38   0.31   0.09     0.16   0.24   0.06
  18   1     0.23  -0.17  -0.02    -0.07  -0.05   0.04    -0.11   0.05   0.02
  19   1    -0.19   0.11  -0.01    -0.15   0.08   0.00     0.00  -0.00   0.01
  20   1     0.13   0.13   0.03     0.17   0.12   0.01    -0.04  -0.06  -0.02
  21   1    -0.03  -0.02  -0.01    -0.20  -0.12   0.04    -0.02  -0.00   0.01
  22   1    -0.10   0.06  -0.02    -0.02  -0.06  -0.03     0.03   0.03   0.02
  23   1     0.05  -0.06   0.04    -0.02   0.09   0.01    -0.01  -0.00  -0.01
  24   1     0.16  -0.13  -0.00     0.04  -0.01  -0.01    -0.13   0.04   0.02
  25   1    -0.02   0.01  -0.01    -0.09   0.05   0.01     0.13  -0.02  -0.05
  26   1    -0.21  -0.17  -0.05     0.10   0.08   0.01     0.15   0.13   0.05
  27   1     0.28   0.26   0.05    -0.11  -0.08  -0.01     0.04  -0.05  -0.04
                     40                     41                     42
                        a                      a                      a 
 Frequencies --  1318.5390              1321.4407              1341.0545
 Red. masses --     3.6045                 3.3642                 4.3720
 Frc consts  --     0.0000                 0.0000                 0.0000
 IR Inten    --     0.4372                 0.7208                 1.9996
 Raman Activ --     0.0000                 0.0000                 0.0000
 Depolar     --     0.0000                 0.0000                 0.0000
 Atom AN      X      Y      Z        X      Y      Z        X      Y      Z
   1   6    -0.03   0.04  -0.05     0.01  -0.10   0.06     0.00  -0.02   0.01
   2   6     0.18  -0.09  -0.04    -0.22   0.08  -0.04    -0.06   0.02   0.01
   3   6     0.01  -0.03   0.03    -0.17   0.06  -0.10     0.00   0.02  -0.00
   4   6     0.01   0.23   0.10     0.20   0.06   0.08     0.02  -0.09  -0.02
   5   6    -0.21   0.07  -0.04     0.09  -0.08   0.02     0.03   0.07   0.03
   6   6     0.03  -0.05  -0.01     0.03   0.07  -0.02    -0.29  -0.13  -0.00
   7   6    -0.01  -0.05  -0.00    -0.03   0.00  -0.04     0.06  -0.32  -0.06
   8   6     0.03  -0.07  -0.04     0.01  -0.05  -0.03     0.26  -0.02  -0.02
   9   6     0.20   0.14   0.05     0.10   0.09   0.07    -0.07   0.03  -0.00
  10   1    -0.01  -0.02   0.04    -0.01   0.01  -0.04     0.00   0.00  -0.01
  11   1     0.03  -0.02  -0.01    -0.01   0.03   0.02     0.00   0.01   0.00
  12   1    -0.07  -0.04   0.03     0.11   0.06  -0.06     0.02   0.01  -0.01
  13   1    -0.33   0.09   0.01     0.29  -0.05  -0.02     0.07  -0.02  -0.00
  14   1    -0.06  -0.01   0.02     0.32  -0.07  -0.01     0.07  -0.01  -0.00
  15   1     0.12  -0.04   0.00     0.37  -0.07  -0.05    -0.02  -0.00  -0.00
  16   1    -0.28   0.08   0.02     0.02  -0.03   0.04     0.04  -0.00  -0.01
  17   1     0.03  -0.25  -0.03    -0.47  -0.13   0.04    -0.03   0.07   0.01
  18   1     0.15  -0.02  -0.03    -0.16   0.05   0.03    -0.01   0.00   0.00
  19   1     0.33  -0.15  -0.03    -0.09   0.03   0.02     0.06   0.03  -0.05
  20   1    -0.08  -0.06  -0.00     0.03   0.02  -0.01     0.21   0.17   0.01
  21   1     0.11   0.06  -0.03    -0.13  -0.08   0.03     0.27   0.24   0.07
  22   1    -0.01   0.11   0.02    -0.03   0.03  -0.00    -0.03   0.21   0.04
  23   1    -0.01   0.01  -0.01    -0.01  -0.02  -0.02    -0.06   0.49   0.10
  24   1     0.07  -0.02  -0.01     0.10  -0.04  -0.02    -0.21   0.09   0.03
  25   1    -0.20   0.04   0.06    -0.14   0.02   0.06    -0.28   0.16   0.00
  26   1    -0.27  -0.22  -0.03    -0.17  -0.13  -0.01    -0.03   0.01   0.05
  27   1    -0.24  -0.18   0.00    -0.16  -0.10   0.01     0.04   0.04   0.00
                     43                     44                     45
                        a                      a                      a 
 Frequencies --  1350.7833              1357.2749              1361.1254
 Red. masses --     4.9258                 4.9902                 5.3268
 Frc consts  --     0.0000                 0.0000                 0.0000
 IR Inten    --     0.8266                 2.3063                 0.1231
 Raman Activ --     0.0000                 0.0000                 0.0000
 Depolar     --     0.0000                 0.0000                 0.0000
 Atom AN      X      Y      Z        X      Y      Z        X      Y      Z
   1   6    -0.01   0.02  -0.02     0.01  -0.01   0.01     0.01   0.02  -0.01
   2   6     0.12  -0.03  -0.02    -0.05  -0.00  -0.01     0.05  -0.03  -0.01
   3   6    -0.06  -0.02   0.02     0.02  -0.00  -0.02     0.02  -0.03  -0.00
   4   6    -0.05   0.26   0.06     0.04   0.02   0.06    -0.08   0.23   0.09
   5   6     0.24  -0.12  -0.06     0.00   0.09   0.06     0.23  -0.14  -0.09
   6   6    -0.10  -0.07  -0.00    -0.32  -0.31  -0.03    -0.08   0.12  -0.03
   7   6    -0.07   0.24   0.05     0.12   0.22  -0.01     0.10  -0.29  -0.08
   8   6     0.26  -0.12  -0.05    -0.27   0.05  -0.00    -0.22   0.18   0.08
   9   6    -0.12  -0.08  -0.00     0.06  -0.03  -0.00    -0.00  -0.17   0.03
  10   1    -0.01  -0.01   0.02     0.00   0.00  -0.01    -0.01  -0.00   0.01
  11   1    -0.00  -0.02  -0.01     0.00   0.00   0.00    -0.01  -0.02  -0.00
  12   1    -0.04  -0.02   0.01     0.01   0.00  -0.01    -0.03  -0.02   0.01
  13   1    -0.14   0.03   0.00     0.05  -0.00  -0.00    -0.07   0.03   0.00
  14   1    -0.08   0.01   0.01     0.05  -0.02   0.00    -0.07   0.01   0.00
  15   1     0.10   0.00  -0.00     0.03   0.00  -0.01     0.03   0.01  -0.00
  16   1    -0.03   0.01  -0.02    -0.10   0.02   0.02    -0.08   0.02   0.00
  17   1     0.06  -0.33  -0.06    -0.06   0.00   0.02     0.10  -0.32  -0.05
  18   1    -0.31   0.12   0.05    -0.08  -0.00   0.02    -0.29   0.16   0.04
  19   1    -0.05   0.00   0.03     0.23  -0.04  -0.07    -0.14   0.03   0.04
  20   1     0.17   0.13   0.01     0.38   0.28   0.01     0.01  -0.06  -0.02
  21   1    -0.09  -0.07  -0.00     0.26   0.17  -0.03    -0.01   0.04   0.05
  22   1     0.04  -0.31  -0.06     0.01  -0.22  -0.05    -0.07   0.35   0.06
  23   1    -0.02  -0.03  -0.02     0.09  -0.10   0.05     0.00   0.16   0.05
  24   1    -0.33   0.12   0.05     0.23  -0.05  -0.04     0.30  -0.15  -0.05
  25   1    -0.07   0.01   0.03     0.27  -0.13  -0.03     0.16  -0.02  -0.05
  26   1    -0.09  -0.07  -0.00     0.07   0.02  -0.04     0.11   0.04  -0.04
  27   1     0.19   0.14   0.01    -0.09  -0.07  -0.00     0.02   0.09   0.03
                     46                     47                     48
                        a                      a                      a 
 Frequencies --  1368.8882              1376.9538              1416.3511
 Red. masses --     5.2933                 5.3241                 3.1603
 Frc consts  --     0.0000                 0.0000                 0.0000
 IR Inten    --     0.4817                 0.4780                 0.6698
 Raman Activ --     0.0000                 0.0000                 0.0000
 Depolar     --     0.0000                 0.0000                 0.0000
 Atom AN      X      Y      Z        X      Y      Z        X      Y      Z
   1   6    -0.02   0.01  -0.02     0.03  -0.06   0.01     0.40   0.10  -0.12
   2   6     0.11   0.00  -0.00    -0.33   0.05   0.03    -0.07   0.02  -0.00
   3   6    -0.04   0.06   0.04     0.42  -0.08  -0.01     0.00   0.01  -0.01
   4   6    -0.29  -0.24   0.00    -0.24   0.11   0.01     0.01  -0.02   0.00
   5   6     0.26  -0.04  -0.02     0.07  -0.04  -0.03    -0.00   0.01   0.00
   6   6    -0.08   0.00   0.01     0.01   0.01   0.01     0.00  -0.00  -0.00
   7   6     0.02   0.03  -0.03    -0.02   0.03   0.01    -0.00   0.00   0.00
   8   6    -0.06  -0.06  -0.03     0.04  -0.04   0.00     0.00  -0.00  -0.00
   9   6     0.28   0.25  -0.00     0.08   0.05  -0.01     0.00   0.01   0.00
  10   1    -0.01  -0.01   0.02    -0.00   0.01  -0.04    -0.46   0.03   0.23
  11   1     0.00  -0.00  -0.00     0.02   0.05   0.01    -0.50  -0.10  -0.03
  12   1    -0.02  -0.01   0.02     0.06   0.03  -0.03    -0.35  -0.30   0.22
  13   1    -0.13   0.02   0.00     0.27  -0.04  -0.00     0.06  -0.07  -0.01
  14   1    -0.07   0.02   0.01     0.32  -0.07  -0.03     0.07  -0.04   0.04
  15   1     0.02  -0.05   0.01    -0.38   0.07   0.03     0.01   0.01  -0.00
  16   1     0.23  -0.05  -0.02    -0.38   0.12   0.03     0.01   0.00  -0.01
  17   1     0.28   0.23   0.02     0.23  -0.05  -0.04    -0.03   0.01   0.00
  18   1    -0.23   0.04   0.03    -0.05   0.01   0.00     0.00  -0.00  -0.00
  19   1    -0.27   0.11   0.05    -0.02  -0.01   0.02     0.00   0.00   0.00
  20   1     0.10   0.07   0.00    -0.01  -0.02  -0.00    -0.00   0.00   0.00
  21   1    -0.03  -0.01   0.02    -0.04  -0.03  -0.02     0.00   0.00   0.00
  22   1    -0.04  -0.04  -0.01    -0.01  -0.02  -0.00     0.00  -0.00  -0.00
  23   1     0.00  -0.00  -0.02    -0.01  -0.02  -0.02     0.00  -0.00  -0.00
  24   1     0.09   0.00  -0.01    -0.04   0.01   0.01    -0.00   0.00   0.00
  25   1    -0.10   0.01   0.03    -0.04   0.01   0.01    -0.01   0.00   0.00
  26   1    -0.21  -0.14   0.04    -0.15  -0.12  -0.01    -0.01  -0.00  -0.00
  27   1    -0.32  -0.22  -0.02    -0.03  -0.02  -0.00    -0.00  -0.01  -0.00
                     49                     50                     51
                        a                      a                      a 
 Frequencies --  1482.7665              1488.2999              1491.5530
 Red. masses --     1.8849                 1.9654                 1.9913
 Frc consts  --     0.0000                 0.0000                 0.0000
 IR Inten    --     0.0181                 0.0562                 0.0638
 Raman Activ --     0.0000                 0.0000                 0.0000
 Depolar     --     0.0000                 0.0000                 0.0000
 Atom AN      X      Y      Z        X      Y      Z        X      Y      Z
   1   6    -0.01  -0.00   0.01    -0.00  -0.01   0.00     0.01   0.00  -0.01
   2   6     0.01   0.06  -0.03     0.02   0.04  -0.03    -0.01  -0.07   0.04
   3   6    -0.00  -0.05   0.03     0.02   0.05  -0.03     0.00   0.03  -0.02
   4   6    -0.01   0.01   0.01    -0.04  -0.01   0.01    -0.00   0.02   0.00
   5   6     0.05   0.11  -0.07    -0.00  -0.11   0.05    -0.02  -0.06   0.02
   6   6     0.04  -0.04  -0.07    -0.01  -0.00  -0.01     0.10  -0.11  -0.15
   7   6    -0.02  -0.03  -0.02    -0.19  -0.00  -0.11    -0.05   0.01  -0.03
   8   6    -0.03  -0.07   0.05     0.02   0.07  -0.04    -0.05  -0.12   0.06
   9   6    -0.09   0.10   0.14    -0.02   0.07   0.06     0.05  -0.06  -0.06
  10   1     0.00   0.01  -0.02     0.00   0.01  -0.02    -0.00  -0.01   0.02
  11   1     0.02   0.01   0.00     0.00   0.03   0.00    -0.02  -0.01  -0.00
  12   1     0.00  -0.00  -0.01    -0.01  -0.00   0.01    -0.00   0.00   0.01
  13   1    -0.03  -0.17  -0.02    -0.03  -0.11  -0.01     0.04   0.19   0.02
  14   1    -0.01  -0.07   0.15    -0.02  -0.04   0.10     0.02   0.08  -0.18
  15   1     0.03   0.13   0.01    -0.04  -0.13  -0.01    -0.03  -0.10  -0.01
  16   1    -0.00   0.05  -0.12     0.00  -0.05   0.13    -0.01  -0.04   0.10
  17   1     0.00  -0.00   0.00     0.03   0.01  -0.00     0.01  -0.02  -0.01
  18   1    -0.13  -0.29  -0.05     0.08   0.25   0.05     0.05   0.12   0.02
  19   1    -0.02  -0.15   0.29    -0.01   0.13  -0.23     0.01   0.05  -0.12
  20   1    -0.14   0.18   0.03    -0.01   0.01   0.00    -0.30   0.37   0.07
  21   1    -0.03   0.02   0.23    -0.02  -0.00   0.02    -0.06   0.03   0.47
  22   1     0.05   0.02  -0.00     0.51   0.08  -0.06     0.14   0.00  -0.02
  23   1     0.02  -0.00   0.05     0.21  -0.06   0.47     0.06  -0.04   0.12
  24   1     0.09   0.20   0.04    -0.08  -0.17  -0.03     0.12   0.28   0.05
  25   1     0.00   0.11  -0.20    -0.02  -0.09   0.17     0.02   0.13  -0.27
  26   1     0.06  -0.03  -0.45     0.01  -0.02  -0.21    -0.03   0.00   0.21
  27   1     0.27  -0.36  -0.07     0.12  -0.18  -0.04    -0.13   0.17   0.03
                     52                     53                     54
                        a                      a                      a 
 Frequencies --  1492.8592              1496.8286              1499.3441
 Red. masses --     1.9351                 1.9246                 1.8594
 Frc consts  --     0.0000                 0.0000                 0.0000
 IR Inten    --     0.2240                 0.4284                 0.2253
 Raman Activ --     0.0000                 0.0000                 0.0000
 Depolar     --     0.0000                 0.0000                 0.0000
 Atom AN      X      Y      Z        X      Y      Z        X      Y      Z
   1   6    -0.00  -0.02   0.00    -0.00   0.03   0.00     0.01   0.02  -0.02
   2   6     0.04   0.06  -0.04    -0.03  -0.02   0.02    -0.04  -0.20   0.11
   3   6     0.04   0.16  -0.11    -0.03  -0.14   0.09    -0.01   0.06  -0.03
   4   6    -0.01   0.03   0.01    -0.01  -0.03   0.01    -0.00   0.00   0.00
   5   6    -0.02  -0.08   0.04    -0.03  -0.12   0.07     0.02   0.05  -0.02
   6   6    -0.02   0.03   0.05    -0.03   0.05   0.07    -0.03   0.05   0.05
   7   6     0.07   0.00   0.05    -0.03   0.00  -0.00    -0.03  -0.01  -0.01
   8   6    -0.02  -0.11   0.06    -0.03  -0.12   0.06     0.00  -0.01   0.01
   9   6    -0.03   0.02   0.04    -0.00   0.04   0.04    -0.05   0.05   0.07
  10   1     0.01   0.03  -0.07    -0.02  -0.03   0.07     0.00  -0.05   0.10
  11   1    -0.01   0.09   0.01     0.02  -0.10  -0.01    -0.05  -0.08  -0.01
  12   1    -0.02  -0.01   0.04     0.02   0.00  -0.06     0.01   0.02   0.03
  13   1    -0.06  -0.17  -0.02     0.03   0.07   0.01     0.12   0.54   0.06
  14   1    -0.03  -0.06   0.17     0.02   0.02  -0.07     0.03   0.22  -0.51
  15   1    -0.12  -0.43  -0.03     0.12   0.39   0.02    -0.03  -0.18  -0.01
  16   1    -0.01  -0.15   0.42     0.02   0.14  -0.38     0.01  -0.07   0.17
  17   1    -0.01  -0.02  -0.00    -0.01   0.01   0.01     0.00   0.01   0.00
  18   1     0.07   0.18   0.04     0.13   0.32   0.06    -0.06  -0.11  -0.02
  19   1     0.01   0.09  -0.17    -0.00   0.17  -0.31    -0.01  -0.05   0.12
  20   1     0.09  -0.12  -0.02     0.12  -0.17  -0.03     0.10  -0.13  -0.03
  21   1     0.01  -0.02  -0.15     0.01  -0.03  -0.21     0.02  -0.01  -0.16
  22   1    -0.20  -0.03   0.02     0.03  -0.00  -0.00     0.06   0.02  -0.00
  23   1    -0.09   0.02  -0.18     0.01  -0.01   0.03     0.02   0.00   0.06
  24   1     0.11   0.28   0.06     0.12   0.29   0.05    -0.00   0.03   0.01
  25   1     0.01   0.14  -0.27     0.00   0.15  -0.28    -0.01   0.02  -0.02
  26   1     0.02  -0.02  -0.14     0.00  -0.02  -0.10     0.02  -0.02  -0.23
  27   1     0.10  -0.10  -0.02     0.04  -0.10  -0.01     0.15  -0.18  -0.04
                     55                     56                     57
                        a                      a                      a 
 Frequencies --  1505.5305              1507.1326              1508.2819
 Red. masses --     1.5368                 1.9366                 1.7202
 Frc consts  --     0.0000                 0.0000                 0.0000
 IR Inten    --     2.3470                 0.3086                 1.0445
 Raman Activ --     0.0000                 0.0000                 0.0000
 Depolar     --     0.0000                 0.0000                 0.0000
 Atom AN      X      Y      Z        X      Y      Z        X      Y      Z
   1   6    -0.03  -0.11  -0.18    -0.03   0.07  -0.05    -0.07   0.16  -0.07
   2   6    -0.01  -0.02  -0.04    -0.02   0.00  -0.00    -0.02   0.10  -0.05
   3   6    -0.00  -0.02   0.02     0.01  -0.01   0.01     0.02   0.02  -0.02
   4   6     0.01   0.00   0.00    -0.03  -0.01   0.01     0.01   0.01  -0.00
   5   6    -0.00   0.00  -0.00    -0.03  -0.10   0.05     0.01   0.05  -0.02
   6   6    -0.00   0.01   0.01     0.05  -0.08  -0.08    -0.02   0.03   0.03
   7   6    -0.01  -0.00  -0.00     0.13   0.01   0.06    -0.06  -0.00  -0.03
   8   6    -0.00  -0.01   0.00     0.02   0.11  -0.04    -0.01  -0.05   0.02
   9   6     0.00  -0.01  -0.01    -0.04   0.06   0.07     0.02  -0.03  -0.04
  10   1     0.41  -0.18   0.10     0.07  -0.14   0.26     0.09  -0.26   0.49
  11   1    -0.38   0.28   0.02    -0.04  -0.26  -0.03    -0.01  -0.56  -0.07
  12   1     0.10   0.33   0.62     0.10   0.11  -0.02     0.20   0.18  -0.12
  13   1     0.02  -0.01  -0.01     0.02   0.04   0.00    -0.01  -0.15  -0.02
  14   1    -0.02  -0.02   0.03     0.01   0.01  -0.04     0.02  -0.06   0.14
  15   1     0.03   0.05   0.00     0.00   0.00   0.00    -0.03  -0.10  -0.00
  16   1    -0.02   0.03  -0.06    -0.00   0.00  -0.01    -0.01  -0.04   0.10
  17   1    -0.01  -0.00   0.00     0.03   0.01  -0.00    -0.01  -0.00  -0.00
  18   1    -0.00  -0.00  -0.00     0.10   0.25   0.04    -0.05  -0.13  -0.02
  19   1    -0.00  -0.00   0.01     0.01   0.12  -0.23    -0.00  -0.06   0.12
  20   1     0.01  -0.02  -0.00    -0.15   0.21   0.04     0.06  -0.08  -0.02
  21   1     0.00  -0.00  -0.02    -0.02   0.02   0.26     0.01  -0.01  -0.10
  22   1     0.02   0.00  -0.00    -0.31  -0.05   0.03     0.13   0.02  -0.01
  23   1     0.01  -0.00   0.02    -0.12   0.04  -0.28     0.05  -0.02   0.12
  24   1     0.01   0.02   0.00    -0.09  -0.24  -0.04     0.04   0.10   0.02
  25   1     0.00   0.01  -0.02    -0.00  -0.12   0.23     0.00   0.05  -0.10
  26   1    -0.00   0.00   0.02     0.03  -0.01  -0.24    -0.02   0.01   0.12
  27   1    -0.01   0.01   0.00     0.15  -0.20  -0.04    -0.07   0.10   0.02
                     58                     59                     60
                        a                      a                      a 
 Frequencies --  2917.6537              2952.8494              2956.2322
 Red. masses --     1.7361                 1.9318                 1.9140
 Frc consts  --     0.0000                 0.0000                 0.0000
 IR Inten    --    26.0424                 7.8667                27.8378
 Raman Activ --     0.0000                 0.0000                 0.0000
 Depolar     --     0.0000                 0.0000                 0.0000
 Atom AN      X      Y      Z        X      Y      Z        X      Y      Z
   1   6     0.00  -0.00   0.00     0.00  -0.00   0.00     0.00  -0.00   0.00
   2   6    -0.00  -0.00   0.01    -0.01  -0.03  -0.08    -0.00  -0.01  -0.02
   3   6     0.01   0.01   0.02     0.06   0.16   0.20     0.01   0.02   0.03
   4   6    -0.02   0.04  -0.25     0.00   0.00   0.01     0.00   0.00   0.01
   5   6     0.01   0.01   0.02    -0.03  -0.04  -0.06     0.04   0.05   0.16
   6   6     0.00  -0.01   0.01     0.00  -0.01   0.01    -0.05   0.07  -0.11
   7   6     0.00   0.00  -0.00    -0.00  -0.00   0.00    -0.00   0.00  -0.00
   8   6     0.00   0.00   0.01     0.00   0.00   0.00     0.03   0.03   0.12
   9   6     0.01  -0.01   0.01    -0.00   0.01  -0.03    -0.03   0.04  -0.11
  10   1    -0.00   0.00   0.00    -0.00  -0.00   0.00    -0.00  -0.00  -0.00
  11   1    -0.00  -0.00   0.00     0.00   0.00  -0.02     0.00   0.00  -0.00
  12   1    -0.00   0.00  -0.00    -0.00   0.00  -0.00    -0.00   0.00  -0.00
  13   1     0.00   0.00  -0.04     0.00  -0.03   0.24     0.00  -0.01   0.05
  14   1     0.00   0.01   0.00     0.04   0.17   0.07     0.01   0.05   0.02
  15   1    -0.00   0.01  -0.07    -0.02   0.05  -0.47    -0.00   0.01  -0.06
  16   1    -0.01  -0.04  -0.01    -0.20  -0.65  -0.25    -0.03  -0.08  -0.03
  17   1     0.08  -0.16   0.93    -0.01   0.01  -0.03    -0.00   0.00  -0.03
  18   1    -0.01   0.02  -0.07     0.01  -0.03   0.14    -0.03   0.10  -0.46
  19   1    -0.02  -0.05  -0.02     0.08   0.17   0.09    -0.13  -0.27  -0.13
  20   1    -0.00   0.01  -0.03    -0.00   0.01  -0.06     0.03  -0.06   0.40
  21   1    -0.01   0.01  -0.00    -0.01   0.01   0.00     0.14  -0.18   0.02
  22   1     0.00  -0.00   0.00     0.00   0.00  -0.00     0.00  -0.00   0.01
  23   1    -0.01  -0.00   0.00     0.00   0.00  -0.00    -0.00   0.00   0.00
  24   1    -0.00   0.01  -0.04    -0.00   0.00  -0.01    -0.02   0.07  -0.34
  25   1    -0.01  -0.01  -0.01    -0.00  -0.01  -0.01    -0.09  -0.19  -0.09
  26   1    -0.03   0.03  -0.00     0.00  -0.01  -0.00     0.07  -0.09   0.00
  27   1    -0.00   0.01  -0.06     0.01  -0.02   0.09     0.03  -0.06   0.40
                     61                     62                     63
                        a                      a                      a 
 Frequencies --  2958.2257              2961.8056              2964.2076
 Red. masses --     1.8708                 1.9750                 1.9089
 Frc consts  --     0.0000                 0.0000                 0.0000
 IR Inten    --     7.2924                17.7529                 3.4822
 Raman Activ --     0.0000                 0.0000                 0.0000
 Depolar     --     0.0000                 0.0000                 0.0000
 Atom AN      X      Y      Z        X      Y      Z        X      Y      Z
   1   6     0.00   0.00  -0.00    -0.00   0.00  -0.00    -0.00   0.00  -0.00
   2   6     0.00   0.01   0.01     0.00   0.01   0.05    -0.00  -0.01  -0.00
   3   6    -0.01  -0.02  -0.01    -0.01  -0.03  -0.03    -0.01  -0.03   0.02
   4   6    -0.00  -0.00  -0.00    -0.00  -0.00  -0.03    -0.00   0.00  -0.01
   5   6    -0.01  -0.01  -0.05    -0.06  -0.09  -0.16     0.03   0.06   0.01
   6   6     0.05  -0.06   0.10    -0.05   0.06  -0.06     0.08  -0.11   0.09
   7   6     0.05   0.03  -0.15    -0.05  -0.03   0.12    -0.07  -0.04   0.11
   8   6     0.04   0.05   0.16     0.03   0.05   0.10    -0.01  -0.01  -0.05
   9   6    -0.01   0.02  -0.05    -0.01   0.02  -0.06    -0.04   0.07  -0.15
  10   1     0.00   0.00  -0.00     0.00   0.01   0.00    -0.00  -0.00  -0.00
  11   1    -0.00  -0.00   0.00    -0.00  -0.00   0.01     0.00  -0.00   0.00
  12   1     0.00  -0.00  -0.00     0.00  -0.00   0.00     0.00  -0.00   0.00
  13   1    -0.00   0.00  -0.03    -0.00   0.02  -0.16     0.00  -0.00  -0.00
  14   1    -0.01  -0.03  -0.01    -0.02  -0.07  -0.03     0.00   0.02   0.01
  15   1    -0.00  -0.01   0.02     0.00  -0.01   0.06    -0.01   0.00  -0.12
  16   1     0.03   0.09   0.04     0.03   0.11   0.04     0.03   0.10   0.05
  17   1    -0.00   0.00  -0.01     0.01  -0.01   0.08     0.00  -0.00   0.02
  18   1     0.01  -0.03   0.16     0.02  -0.08   0.36     0.01  -0.01   0.08
  19   1     0.03   0.07   0.03     0.19   0.41   0.22    -0.10  -0.21  -0.12
  20   1    -0.03   0.05  -0.38     0.01  -0.02   0.19    -0.01   0.03  -0.24
  21   1    -0.14   0.18  -0.02     0.15  -0.20   0.03    -0.28   0.37  -0.07
  22   1     0.06  -0.08   0.48    -0.05   0.06  -0.34    -0.04   0.04  -0.27
  23   1    -0.23  -0.05   0.08     0.24   0.05  -0.10     0.32   0.07  -0.13
  24   1    -0.04   0.10  -0.47    -0.01   0.05  -0.22     0.01  -0.03   0.14
  25   1    -0.12  -0.26  -0.13    -0.11  -0.23  -0.12     0.03   0.06   0.03
  26   1     0.03  -0.03  -0.00     0.02  -0.02  -0.00     0.12  -0.15   0.01
  27   1     0.01  -0.03   0.20     0.02  -0.03   0.22     0.04  -0.08   0.52
                     64                     65                     66
                        a                      a                      a 
 Frequencies --  2967.5760              2969.0202              2972.7155
 Red. masses --     1.7058                 1.7006                 1.7616
 Frc consts  --     0.0000                 0.0000                 0.0000
 IR Inten    --     2.3178                40.1609                31.7625
 Raman Activ --     0.0000                 0.0000                 0.0000
 Depolar     --     0.0000                 0.0000                 0.0000
 Atom AN      X      Y      Z        X      Y      Z        X      Y      Z
   1   6    -0.00  -0.01  -0.01    -0.00  -0.01  -0.00     0.01   0.00   0.02
   2   6     0.01   0.02   0.18     0.00   0.01   0.05    -0.01  -0.04  -0.17
   3   6     0.03   0.10  -0.04     0.02   0.08  -0.03    -0.01   0.02  -0.14
   4   6     0.00   0.00  -0.00     0.01  -0.00   0.02    -0.00   0.00  -0.02
   5   6    -0.01  -0.05   0.04     0.02   0.03   0.03    -0.03  -0.09   0.05
   6   6    -0.00  -0.00   0.04     0.05  -0.07  -0.01     0.00  -0.01   0.06
   7   6     0.03   0.01  -0.02    -0.10  -0.02   0.04    -0.02  -0.01   0.03
   8   6    -0.02  -0.04  -0.06     0.05   0.10   0.07     0.00   0.01  -0.01
   9   6    -0.02   0.03  -0.07     0.04  -0.06   0.10    -0.02   0.03  -0.03
  10   1     0.01   0.04   0.02     0.01   0.02   0.01    -0.01  -0.04  -0.01
  11   1    -0.00  -0.01   0.05    -0.00  -0.00   0.01     0.00   0.01  -0.08
  12   1     0.00  -0.01  -0.00    -0.01   0.00  -0.00    -0.01   0.02  -0.00
  13   1    -0.01   0.07  -0.61    -0.00   0.02  -0.16     0.00  -0.06   0.52
  14   1    -0.03  -0.13  -0.04    -0.01  -0.03  -0.01     0.05   0.20   0.08
  15   1     0.02  -0.01   0.33     0.02  -0.00   0.26     0.03  -0.02   0.52
  16   1    -0.11  -0.36  -0.16    -0.09  -0.28  -0.13    -0.01  -0.04  -0.04
  17   1     0.00  -0.00  -0.00    -0.00   0.01  -0.06     0.00  -0.01   0.05
  18   1    -0.02   0.03  -0.21    -0.00   0.02  -0.05    -0.03   0.05  -0.34
  19   1     0.07   0.14   0.09    -0.06  -0.12  -0.07     0.13   0.27   0.17
  20   1    -0.01   0.03  -0.14     0.02  -0.03   0.09    -0.02   0.04  -0.22
  21   1     0.02  -0.03   0.01    -0.21   0.27  -0.06     0.01  -0.01   0.01
  22   1     0.01  -0.00   0.02    -0.01  -0.01   0.04    -0.01   0.01  -0.06
  23   1    -0.13  -0.03   0.06     0.39   0.09  -0.18     0.09   0.02  -0.04
  24   1     0.01  -0.03   0.10     0.01   0.02  -0.00     0.00  -0.01   0.04
  25   1     0.08   0.17   0.10    -0.19  -0.39  -0.23    -0.02  -0.03  -0.02
  26   1     0.05  -0.07   0.00    -0.13   0.17  -0.02     0.07  -0.09   0.01
  27   1     0.02  -0.04   0.26    -0.02   0.05  -0.32     0.01  -0.01   0.08
                     67                     68                     69
                        a                      a                      a 
 Frequencies --  2975.2326              2978.9315              2982.8898
 Red. masses --     1.5179                 1.5032                 1.5870
 Frc consts  --     0.0000                 0.0000                 0.0000
 IR Inten    --     5.5428                93.3030               164.5411
 Raman Activ --     0.0000                 0.0000                 0.0000
 Depolar     --     0.0000                 0.0000                 0.0000
 Atom AN      X      Y      Z        X      Y      Z        X      Y      Z
   1   6     0.00  -0.00   0.01    -0.00   0.00  -0.01     0.00  -0.00   0.01
   2   6    -0.01  -0.03  -0.04     0.00   0.01   0.02     0.00   0.01  -0.03
   3   6     0.01   0.05  -0.08    -0.01  -0.04   0.05    -0.00   0.00  -0.03
   4   6    -0.00   0.01  -0.01    -0.00  -0.00   0.00    -0.00   0.00  -0.02
   5   6     0.01   0.06  -0.06    -0.03  -0.11   0.02    -0.01  -0.02  -0.05
   6   6     0.03  -0.03  -0.05     0.05  -0.07  -0.07     0.06  -0.07  -0.10
   7   6     0.03  -0.01   0.03    -0.07  -0.01  -0.05     0.12   0.02  -0.04
   8   6    -0.03  -0.11   0.08    -0.03  -0.07  -0.00     0.02   0.06  -0.06
   9   6    -0.03   0.04   0.03    -0.02   0.03   0.02     0.02  -0.02  -0.05
  10   1    -0.00  -0.01  -0.00    -0.00  -0.00  -0.00    -0.00  -0.00  -0.00
  11   1    -0.00   0.00  -0.03     0.00  -0.00   0.02     0.00   0.00  -0.02
  12   1    -0.00   0.01  -0.00     0.01  -0.01   0.00    -0.01   0.01  -0.00
  13   1    -0.00  -0.01   0.06     0.00   0.01  -0.05     0.00  -0.01   0.12
  14   1     0.03   0.14   0.06    -0.01  -0.05  -0.02    -0.01  -0.03  -0.02
  15   1     0.02  -0.01   0.35    -0.01   0.01  -0.23     0.01  -0.01   0.12
  16   1    -0.05  -0.17  -0.08     0.04   0.13   0.06    -0.00   0.00  -0.00
  17   1     0.00  -0.00   0.02     0.00  -0.00   0.00     0.00  -0.01   0.05
  18   1     0.03  -0.06   0.34    -0.03   0.04  -0.30     0.01  -0.02   0.10
  19   1    -0.08  -0.17  -0.11     0.17   0.35   0.21     0.05   0.11   0.06
  20   1     0.02  -0.04   0.22     0.04  -0.07   0.33     0.05  -0.09   0.45
  21   1    -0.12   0.15  -0.04    -0.23   0.31  -0.08    -0.25   0.33  -0.09
  22   1    -0.01   0.03  -0.17     0.02  -0.05   0.29     0.01   0.01  -0.07
  23   1    -0.08  -0.02   0.04     0.24   0.05  -0.12    -0.46  -0.10   0.21
  24   1    -0.05   0.07  -0.47    -0.02   0.02  -0.15     0.03  -0.05   0.31
  25   1     0.15   0.31   0.20     0.12   0.24   0.15    -0.08  -0.16  -0.11
  26   1     0.13  -0.18   0.04     0.09  -0.13   0.03    -0.09   0.12  -0.03
  27   1    -0.02   0.03  -0.14    -0.01   0.02  -0.09     0.02  -0.04   0.22
                     70                     71                     72
                        a                      a                      a 
 Frequencies --  2983.0974              2985.4937              2991.8797
 Red. masses --     1.7218                 1.5472                 1.5999
 Frc consts  --     0.0000                 0.0000                 0.0000
 IR Inten    --   223.1674                21.1496               108.1130
 Raman Activ --     0.0000                 0.0000                 0.0000
 Depolar     --     0.0000                 0.0000                 0.0000
 Atom AN      X      Y      Z        X      Y      Z        X      Y      Z
   1   6    -0.00   0.01   0.01     0.01  -0.02   0.00     0.01  -0.03  -0.01
   2   6    -0.01  -0.06  -0.03     0.03   0.13  -0.02     0.04   0.16   0.02
   3   6    -0.00   0.01  -0.05     0.01   0.03  -0.02     0.01   0.03   0.01
   4   6    -0.00   0.01  -0.03     0.00  -0.00  -0.01    -0.00   0.01  -0.01
   5   6     0.00   0.04  -0.08     0.00   0.02  -0.02     0.00   0.01  -0.01
   6   6    -0.04   0.05  -0.08    -0.01   0.02  -0.01    -0.01   0.01  -0.00
   7   6    -0.08   0.01  -0.13    -0.05  -0.00  -0.02     0.01   0.00  -0.01
   8   6    -0.01   0.02  -0.09    -0.03  -0.07  -0.01     0.01   0.04  -0.01
   9   6    -0.04   0.05  -0.06     0.08  -0.11  -0.04    -0.09   0.12   0.01
  10   1    -0.01  -0.02  -0.01     0.02   0.05   0.03     0.03   0.10   0.05
  11   1    -0.00   0.00  -0.03     0.00  -0.00  -0.03     0.00  -0.01  -0.00
  12   1     0.01  -0.00   0.00    -0.03   0.03  -0.01    -0.05   0.04  -0.02
  13   1    -0.00  -0.01  -0.01     0.01  -0.01   0.29     0.01   0.00   0.22
  14   1     0.05   0.21   0.10    -0.11  -0.45  -0.23    -0.14  -0.58  -0.28
  15   1     0.01  -0.01   0.19     0.01  -0.00   0.13     0.00   0.00   0.01
  16   1    -0.01  -0.02  -0.02    -0.03  -0.09  -0.04    -0.04  -0.11  -0.05
  17   1     0.01  -0.01   0.07     0.00  -0.00   0.02     0.00  -0.00   0.03
  18   1     0.03  -0.06   0.34     0.01  -0.01   0.08     0.00  -0.01   0.05
  19   1    -0.04  -0.08  -0.06    -0.02  -0.04  -0.03    -0.02  -0.04  -0.02
  20   1     0.01  -0.03   0.22     0.00  -0.00   0.03    -0.00   0.00   0.00
  21   1     0.13  -0.17   0.03     0.04  -0.05   0.01     0.02  -0.03   0.01
  22   1     0.05  -0.10   0.57     0.01  -0.03   0.16     0.00  -0.00   0.01
  23   1     0.23   0.06  -0.13     0.17   0.04  -0.08    -0.03  -0.01   0.01
  24   1     0.03  -0.06   0.33    -0.01   0.01  -0.12     0.01  -0.02   0.11
  25   1     0.01   0.02  -0.00     0.11   0.24   0.14    -0.06  -0.12  -0.07
  26   1     0.12  -0.16   0.03    -0.33   0.44  -0.10     0.36  -0.47   0.10
  27   1     0.01  -0.02   0.19     0.03  -0.06   0.26    -0.03   0.04  -0.15
                     73                     74                     75
                        a                      a                      a 
 Frequencies --  3028.6482              3030.7889              3036.1613
 Red. masses --     1.9522                 1.9318                 1.2670
 Frc consts  --     0.0000                 0.0000                 0.0000
 IR Inten    --    65.9852                62.4192                33.9499
 Raman Activ --     0.0000                 0.0000                 0.0000
 Depolar     --     0.0000                 0.0000                 0.0000
 Atom AN      X      Y      Z        X      Y      Z        X      Y      Z
   1   6     0.04   0.18   0.22     0.10  -0.22   0.16     0.15  -0.01  -0.05
   2   6     0.01   0.03   0.04    -0.00  -0.03   0.02     0.01   0.00  -0.01
   3   6     0.00   0.01   0.01    -0.00  -0.01   0.01     0.00   0.00  -0.00
   4   6     0.00   0.00   0.00     0.00  -0.00   0.00    -0.00  -0.00  -0.00
   5   6     0.00   0.00   0.00    -0.00  -0.00   0.00     0.00   0.00  -0.00
   6   6    -0.00   0.00   0.00     0.00  -0.00   0.00    -0.00   0.00   0.00
   7   6    -0.00  -0.00   0.00    -0.00  -0.00   0.00    -0.00  -0.00  -0.00
   8   6     0.00   0.00   0.00    -0.00  -0.00   0.00    -0.00  -0.00  -0.00
   9   6    -0.00   0.00   0.00     0.00  -0.00   0.00    -0.00   0.00  -0.00
  10   1    -0.19  -0.68  -0.32     0.10   0.26   0.17    -0.09  -0.39  -0.20
  11   1     0.00   0.09  -0.52     0.01   0.03  -0.58     0.02  -0.06   0.55
  12   1     0.06  -0.03   0.05    -0.47   0.46  -0.16    -0.45   0.48  -0.18
  13   1    -0.00   0.01  -0.06    -0.00   0.01  -0.09     0.00  -0.00   0.01
  14   1    -0.03  -0.12  -0.06     0.02   0.07   0.04     0.00  -0.00  -0.00
  15   1    -0.00   0.00  -0.02    -0.00   0.00  -0.04     0.00  -0.00   0.01
  16   1    -0.01  -0.03  -0.01     0.01   0.04   0.02    -0.00  -0.01  -0.00
  17   1    -0.00   0.00  -0.01    -0.00   0.00  -0.01    -0.00  -0.00   0.00
  18   1    -0.00   0.00  -0.00    -0.00   0.00  -0.01     0.00  -0.00   0.00
  19   1    -0.00  -0.01  -0.00     0.00   0.01   0.00    -0.00  -0.00  -0.00
  20   1    -0.00   0.00  -0.00    -0.00   0.00  -0.00    -0.00   0.00  -0.00
  21   1     0.00  -0.00   0.00    -0.00   0.00  -0.00     0.00  -0.00   0.00
  22   1    -0.00   0.00  -0.00    -0.00   0.00  -0.00     0.00  -0.00   0.00
  23   1     0.00   0.00  -0.00     0.00   0.00  -0.00     0.00   0.00  -0.00
  24   1    -0.00   0.00  -0.00    -0.00   0.00  -0.00    -0.00   0.00  -0.00
  25   1    -0.00  -0.00  -0.00     0.00   0.00   0.00     0.00   0.00   0.00
  26   1     0.01  -0.02   0.00    -0.01   0.01  -0.00     0.00  -0.00  -0.00
  27   1    -0.00   0.00  -0.01    -0.00   0.00  -0.01     0.00  -0.00   0.00
