      -----------------------------------------------------------      
     |                   =====================                   |     
     |                           x T B                           |     
     |                   =====================                   |     
     |                         S. Grimme                         |     
     |          Mulliken Center for Theoretical Chemistry        |     
     |                    University of Bonn                     |     
      -----------------------------------------------------------      

   * xtb version 6.7.1pre (5071a88) compiled by 'Marcel@Raven' on 2024-07-23

   xtb is free software: you can redistribute it and/or modify it under
   the terms of the GNU Lesser General Public License as published by
   the Free Software Foundation, either version 3 of the License, or
   (at your option) any later version.
   
   xtb is distributed in the hope that it will be useful,
   but WITHOUT ANY WARRANTY; without even the implied warranty of
   MERCHANTABILITY or FITNESS FOR A PARTICULAR PURPOSE.  See the
   GNU Lesser General Public License for more details.
   
   Cite this work as:
   * C. Bannwarth, E. Caldeweyher, S. Ehlert, A. Hansen, P. Pracht,
     J. Seibert, S. Spicher, S. Grimme, WIREs Comput. Mol. Sci., 2020, 11,
     e01493. DOI: 10.1002/wcms.1493
   
   for GFN2-xTB:
   * C. Bannwarth, S. Ehlert and S. Grimme., J. Chem. Theory Comput., 2019,
     15, 1652-1671. DOI: 10.1021/acs.jctc.8b01176
   for GFN1-xTB:
   * S. Grimme, C. Bannwarth, P. Shushkov, J. Chem. Theory Comput., 2017,
     13, 1989-2009. DOI: 10.1021/acs.jctc.7b00118
   for GFN0-xTB:
   * P. Pracht, E. Caldeweyher, S. Ehlert, S. Grimme, ChemRxiv, 2019, preprint.
     DOI: 10.26434/chemrxiv.8326202.v1
   for GFN-FF:
   * S. Spicher and S. Grimme, Angew. Chem. Int. Ed., 2020, 59, 15665-15673.
     DOI: 10.1002/anie.202004239
   
   for ALPB and GBSA implicit solvation:
   * S. Ehlert, M. Stahn, S. Spicher, S. Grimme, J. Chem. Theory Comput.,
     2021, 17, 4250-4261. DOI: 10.1021/acs.jctc.1c00471
   
   for ddCOSMO and CPCM-X implicit solvation:
   * M. Stahn, S. Ehlert, S. Grimme, J. Phys. Chem. A,
     2023, XX, XXXX-XXXX. DOI: 10.1021/acs.jpca.3c04382
   
   for DFT-D4:
   * E. Caldeweyher, C. Bannwarth and S. Grimme, J. Chem. Phys., 2017,
     147, 034112. DOI: 10.1063/1.4993215
   * E. Caldeweyher, S. Ehlert, A. Hansen, H. Neugebauer, S. Spicher,
     C. Bannwarth and S. Grimme, J. Chem. Phys., 2019, 150, 154122.
     DOI: 10.1063/1.5090222
   * E. Caldeweyher, J.-M. Mewes, S. Ehlert and S. Grimme, Phys. Chem. Chem. Phys.
     2020, 22, 8499-8512. DOI: 10.1039/D0CP00502A
   
   for sTDA-xTB:
   * S. Grimme and C. Bannwarth, J. Chem. Phys., 2016, 145, 054103.
     DOI: 10.1063/1.4959605
   
   in the mass-spec context:
   * V. Asgeirsson, C. Bauer and S. Grimme, Chem. Sci., 2017, 8, 4879.
     DOI: 10.1039/c7sc00601b
   * J. Koopman and S. Grimme, ACS Omega 2019, 4, 12, 15120-15133.
     DOI: 10.1021/acsomega.9b02011
   
   for metadynamics refer to:
   * S. Grimme, J. Chem. Theory Comput., 2019, 155, 2847-2862
     DOI: 10.1021/acs.jctc.9b00143
   
   for SPH calculations refer to:
   * S. Spicher and S. Grimme, J. Chem. Theory Comput., 2021, 17, 1701-1714
     DOI: 10.1021/acs.jctc.0c01306
   
   for ONIOM refer to:
   * C. Plett, A. Katbashev, S. Ehlert, S. Grimme, M. Bursch,
     Phys. Chem. Chem. Phys., 2023, 25, 17860-17868. DOI: 10.1039/D3CP02178E
   
   for DIPRO refer to:
   * J. Kohn, N. Gildemeister, S. Grimme, D. Fazzi, A. Hansen,
     J. Chem. Phys., 2023, just accepted.
   
   for PTB refer to:
   * S. Grimme, M. Mueller, A. Hansen, J. Chem. Phys., 2023, 158, 124111.
     DOI: 10.1063/5.0137838
   
   with help from (in alphabetical order)
   P. Atkinson, C. Bannwarth, F. Bohle, G. Brandenburg, E. Caldeweyher
   M. Checinski, S. Dohm, S. Ehlert, S. Ehrlich, I. Gerasimov, C. Hölzer
   A. Katbashev, J. Kohn, J. Koopman, C. Lavigne, S. Lehtola, F. März, M. Müller,
   F. Musil, H. Neugebauer, J. Pisarek, C. Plett, P. Pracht, F. Pultar,
   J. Seibert, P. Shushkov, S. Spicher, M. Stahn, M. Steiner, T. Strunk,
   J. Stückrath, T. Rose, and J. Unsleber
   
 * started run on 2026/09/17 at 00:40:32.998     
   ID    Z sym.   atoms
    1    6 C      1-9
    2    1 H      10-27

           -------------------------------------------------
          |                Calculation Setup                |
           -------------------------------------------------

          program call               : C:\ORCA_6.1.1\xtb-6.7.1pre\xtb.exe optimized.xyz --gfn 2 --chrg 0 --uhf 0 --hess --json
          coordinate file            : optimized.xyz
          omp threads                :                     4


           -------------------------------------------------
          |                 G F N 2 - x T B                 |
           -------------------------------------------------

        Reference                      10.1021/acs.jctc.8b01176
      * Hamiltonian:
        H0-scaling (s, p, d)           1.850000    2.230000    2.230000
        zeta-weighting                 0.500000
      * Dispersion:
        s8                             2.700000
        a1                             0.520000
        a2                             5.000000
        s9                             5.000000
      * Repulsion:
        kExp                           1.500000    1.000000
        rExp                           1.000000
      * Coulomb:
        alpha                          2.000000
        third order                    shell-resolved
        anisotropic                    true
        a3                             3.000000
        a5                             4.000000
        cn-shift                       1.200000
        cn-exp                         4.000000
        max-rad                        5.000000

q/qsh data taken from xtbrestart
CAMM data taken from xtbrestart

          ...................................................
          :                      SETUP                      :
          :.................................................:
          :  # basis functions                  54          :
          :  # atomic orbitals                  54          :
          :  # shells                           36          :
          :  # electrons                        54          :
          :  max. iterations                   250          :
          :  Hamiltonian                  GFN2-xTB          :
          :  restarted?                       true          :
          :  GBSA solvation                  false          :
          :  PC potential                    false          :
          :  electronic temp.          300.0000000     K    :
          :  accuracy                    1.0000000          :
          :  -> integral cutoff          0.2500000E+02      :
          :  -> integral neglect         0.1000000E-07      :
          :  -> SCF convergence          0.1000000E-05 Eh   :
          :  -> wf. convergence          0.1000000E-03 e    :
          :  Broyden damping             0.4000000          :
          :  net charge                          0          :
          :  unpaired electrons                  0          :
          ...................................................

 iter      E             dE          RMSdq      gap      omega  full diag
   1    -28.9030673 -0.289031E+02  0.153E-05   12.45       0.0  T
   2    -28.9030673 -0.248690E-13  0.904E-06   12.45    2129.0  T
   3    -28.9030673  0.355271E-14  0.278E-07   12.45   69322.6  T

   *** convergence criteria satisfied after 3 iterations ***

         #    Occupation            Energy/Eh            Energy/eV
      -------------------------------------------------------------
         1        2.0000           -0.6302997             -17.1513
       ...           ...                  ...                  ...
        21        2.0000           -0.4352404             -11.8435
        22        2.0000           -0.4324393             -11.7673
        23        2.0000           -0.4284600             -11.6590
        24        2.0000           -0.4207911             -11.4503
        25        2.0000           -0.4152600             -11.2998
        26        2.0000           -0.4063365             -11.0570
        27        2.0000           -0.4024545             -10.9513 (HOMO)
        28                          0.0549830               1.4962 (LUMO)
        29                          0.0798798               2.1736
        30                          0.0919588               2.5023
        31                          0.1055957               2.8734
        32                          0.1117249               3.0402
       ...                                ...                  ...
        54                          0.3242989               8.8246
      -------------------------------------------------------------
                  HL-Gap            0.4574375 Eh           12.4475 eV
             Fermi-level           -0.1737358 Eh           -4.7276 eV

 SCC (total)                   0 d,  0 h,  0 min,  0.008 sec
 SCC setup                      ...        0 min,  0.002 sec ( 25.001%)
 Dispersion                     ...        0 min,  0.000 sec (  0.000%)
 classical contributions        ...        0 min,  0.000 sec (  0.000%)
 integral evaluation            ...        0 min,  0.001 sec ( 12.499%)
 iterations                     ...        0 min,  0.002 sec ( 25.001%)
 molecular gradient             ...        0 min,  0.002 sec ( 24.999%)
 printout                       ...        0 min,  0.001 sec ( 12.499%)

         :::::::::::::::::::::::::::::::::::::::::::::::::::::
         ::                     SUMMARY                     ::
         :::::::::::::::::::::::::::::::::::::::::::::::::::::
         :: total energy             -28.481259212563 Eh    ::
         :: gradient norm              0.000120180092 Eh/a0 ::
         :: HOMO-LUMO gap             12.447508764175 eV    ::
         ::.................................................::
         :: SCC energy               -28.903011227561 Eh    ::
         :: -> isotropic ES            0.004338514848 Eh    ::
         :: -> anisotropic ES          0.008271427198 Eh    ::
         :: -> anisotropic XC          0.016396462941 Eh    ::
         :: -> dispersion             -0.019123449004 Eh    ::
         :: repulsion energy           0.421752014998 Eh    ::
         :: add. restraining           0.000000000000 Eh    ::
         :: total charge              -0.000000000000 e     ::
         :::::::::::::::::::::::::::::::::::::::::::::::::::::

           ------------------------------------------------- 
          |                Numerical Hessian                |
           ------------------------------------------------- 
step length          :   0.00500
SCC accuracy         :   0.30000
Hessian scale factor :   1.00000
frozen atoms in %    :   0.00000    0
RMS gradient         :   0.00012
estimated CPU  time      0.09 min
estimated wall time      0.02 min

writing file <hessian>.

 projected vibrational frequencies (cm⁻¹)
eigval :       -0.00    -0.00    -0.00    -0.00     0.00     0.00
eigval :       58.71    73.46   118.35   188.27   226.88   235.55
eigval :      292.84   320.90   349.97   432.83   448.92   468.04
eigval :      573.61   778.97   820.75   837.13   876.70   902.60
eigval :      932.39   934.83   946.15   973.41   983.48  1043.54
eigval :     1071.47  1084.25  1096.03  1107.05  1124.11  1131.68
eigval :     1145.78  1177.60  1201.67  1227.13  1243.97  1251.10
eigval :     1263.13  1278.50  1284.31  1318.54  1321.44  1341.05
eigval :     1350.78  1357.27  1361.13  1368.89  1376.95  1416.35
eigval :     1482.77  1488.30  1491.55  1492.86  1496.83  1499.34
eigval :     1505.53  1507.13  1508.28  2917.65  2952.85  2956.23
eigval :     2958.23  2961.81  2964.21  2967.58  2969.02  2972.72
eigval :     2975.23  2978.93  2982.89  2983.10  2985.49  2991.88
eigval :     3028.65  3030.79  3036.16
           -------------------------------------------------
          |                Property Printout                |
           -------------------------------------------------

    * Orbital Energies and Occupations

         #    Occupation            Energy/Eh            Energy/eV
      -------------------------------------------------------------
         1        2.0000           -0.6302997             -17.1513
       ...           ...                  ...                  ...
        15        2.0000           -0.4802391             -13.0680
        16        2.0000           -0.4746192             -12.9150
        17        2.0000           -0.4637533             -12.6194
        18        2.0000           -0.4601672             -12.5218
        19        2.0000           -0.4502118             -12.2509
        20        2.0000           -0.4419277             -12.0255
        21        2.0000           -0.4352404             -11.8435
        22        2.0000           -0.4324393             -11.7673
        23        2.0000           -0.4284600             -11.6590
        24        2.0000           -0.4207911             -11.4503
        25        2.0000           -0.4152600             -11.2998
        26        2.0000           -0.4063365             -11.0570
        27        2.0000           -0.4024545             -10.9513 (HOMO)
        28                          0.0549830               1.4962 (LUMO)
        29                          0.0798798               2.1736
        30                          0.0919588               2.5023
        31                          0.1055957               2.8734
        32                          0.1117249               3.0402
        33                          0.1173585               3.1935
        34                          0.1287247               3.5028
        35                          0.1391154               3.7855
        36                          0.1491058               4.0574
        37                          0.1575271               4.2865
        38                          0.1610220               4.3816
       ...                                ...                  ...
        54                          0.3242989               8.8246
      -------------------------------------------------------------
                  HL-Gap            0.4574375 Eh           12.4475 eV
             Fermi-level           -0.1737358 Eh           -4.7276 eV

     #   Z          covCN         q      C6AA      α(0)
     1   6 C        3.752    -0.102    22.506     6.765
     2   6 C        3.800    -0.052    21.511     6.604
     3   6 C        3.806    -0.063    21.709     6.633
     4   6 C        3.854    -0.019    20.878     6.499
     5   6 C        3.809    -0.058    21.618     6.618
     6   6 C        3.805    -0.054    21.545     6.608
     7   6 C        3.806    -0.055    21.561     6.610
     8   6 C        3.805    -0.054    21.546     6.608
     9   6 C        3.808    -0.059    21.621     6.619
    10   1 H        0.925     0.033     2.550     2.497
    11   1 H        0.925     0.033     2.545     2.495
    12   1 H        0.925     0.032     2.557     2.501
    13   1 H        0.924     0.028     2.614     2.528
    14   1 H        0.924     0.029     2.599     2.521
    15   1 H        0.924     0.029     2.599     2.521
    16   1 H        0.924     0.030     2.586     2.515
    17   1 H        0.924     0.027     2.623     2.533
    18   1 H        0.924     0.030     2.581     2.512
    19   1 H        0.924     0.024     2.667     2.554
    20   1 H        0.924     0.029     2.597     2.520
    21   1 H        0.924     0.025     2.655     2.548
    22   1 H        0.924     0.030     2.580     2.512
    23   1 H        0.924     0.024     2.667     2.554
    24   1 H        0.924     0.029     2.603     2.523
    25   1 H        0.924     0.025     2.660     2.551
    26   1 H        0.924     0.027     2.628     2.535
    27   1 H        0.924     0.031     2.579     2.511

 Mol. C6AA /au·bohr⁶  :       5009.650159
 Mol. C8AA /au·bohr⁸  :     105986.755368
 Mol. α(0) /au        :        104.995364


Wiberg/Mayer (AO) data.
largest (>0.10) Wiberg bond orders for each atom

 ---------------------------------------------------------------------------
     #   Z sym  total        # sym  WBO       # sym  WBO       # sym  WBO
 ---------------------------------------------------------------------------
     1   6 C    3.997 --     2 C    1.019    11 H    0.988    10 H    0.988
                            12 H    0.988
     2   6 C    3.998 --     1 C    1.019     3 C    1.008    13 H    0.978
                            14 H    0.976
     3   6 C    3.996 --     2 C    1.008     4 C    0.995    15 H    0.977
                            16 H    0.975
     4   6 C    3.996 --     9 C    0.998     5 C    0.996     3 C    0.995
                            17 H    0.967
     5   6 C    3.998 --     6 C    1.008     4 C    0.996    18 H    0.977
                            19 H    0.977
     6   6 C    3.998 --     7 C    1.009     5 C    1.008    20 H    0.978
                            21 H    0.978
     7   6 C    3.998 --     8 C    1.009     6 C    1.009    23 H    0.978
                            22 H    0.978
     8   6 C    3.998 --     7 C    1.009     9 C    1.008    25 H    0.978
                            24 H    0.978
     9   6 C    3.998 --     8 C    1.008     4 C    0.998    27 H    0.976
                            26 H    0.974
    10   1 H    0.999 --     1 C    0.988
    11   1 H    0.999 --     1 C    0.988
    12   1 H    0.999 --     1 C    0.988
    13   1 H    0.999 --     2 C    0.978
    14   1 H    0.999 --     2 C    0.976
    15   1 H    0.999 --     3 C    0.977
    16   1 H    0.999 --     3 C    0.975
    17   1 H    0.999 --     4 C    0.967
    18   1 H    0.999 --     5 C    0.977
    19   1 H    0.999 --     5 C    0.977
    20   1 H    0.999 --     6 C    0.978
    21   1 H    0.999 --     6 C    0.978
    22   1 H    0.999 --     7 C    0.978
    23   1 H    0.999 --     7 C    0.978
    24   1 H    0.999 --     8 C    0.978
    25   1 H    0.999 --     8 C    0.978
    26   1 H    0.999 --     9 C    0.974
    27   1 H    0.999 --     9 C    0.976
 ---------------------------------------------------------------------------

Topologies differ in total number of bonds
Writing topology from bond orders to xtbtopo.mol

molecular dipole:
                 x           y           z       tot (Debye)
 q only:        0.010      -0.002      -0.009
   full:        0.011       0.001      -0.011       0.039
molecular quadrupole (traceless):
                xx          xy          yy          xz          yz          zz
 q only:        0.177       0.002      -0.026      -0.059      -0.048      -0.151
  q+dip:       -1.803      -0.029      -0.295       0.597      -0.062       2.098
   full:       -0.829      -0.015      -0.176       0.273      -0.050       1.004

           -------------------------------------------------
          |               Frequency Printout                |
           -------------------------------------------------
 projected vibrational frequencies (cm⁻¹)
eigval :       -0.00    -0.00    -0.00    -0.00     0.00     0.00
eigval :       58.71    73.46   118.35   188.27   226.88   235.55
eigval :      292.84   320.90   349.97   432.83   448.92   468.04
eigval :      573.61   778.97   820.75   837.13   876.70   902.60
eigval :      932.39   934.83   946.15   973.41   983.48  1043.54
eigval :     1071.47  1084.25  1096.03  1107.05  1124.11  1131.68
eigval :     1145.78  1177.60  1201.67  1227.13  1243.97  1251.10
eigval :     1263.13  1278.50  1284.31  1318.54  1321.44  1341.05
eigval :     1350.78  1357.27  1361.13  1368.89  1376.95  1416.35
eigval :     1482.77  1488.30  1491.55  1492.86  1496.83  1499.34
eigval :     1505.53  1507.13  1508.28  2917.65  2952.85  2956.23
eigval :     2958.23  2961.81  2964.21  2967.58  2969.02  2972.72
eigval :     2975.23  2978.93  2982.89  2983.10  2985.49  2991.88
eigval :     3028.65  3030.79  3036.16
 reduced masses (amu)
   1:  9.49   2: 10.21   3:  9.55   4:  9.73   5:  9.80   6: 10.06   7:  5.73   8:  8.64
   9:  8.72  10:  7.69  11:  6.16  12:  2.22  13:  9.47  14:  6.95  15:  7.96  16:  9.20
  17:  7.94  18:  7.51  19:  6.47  20:  2.38  21:  4.55  22:  7.16  23:  3.77  24:  7.02
  25:  3.94  26:  4.96  27:  7.06  28:  6.97  29:  7.02  30:  3.91  31:  2.15  32:  7.92
  33:  7.12  34:  6.68  35:  7.28  36:  6.51  37:  7.20  38:  7.66  39:  5.02  40:  4.77
  41:  3.12  42:  3.63  43:  3.55  44:  2.97  45:  2.65  46:  3.60  47:  3.36  48:  4.37
  49:  4.93  50:  4.99  51:  5.33  52:  5.29  53:  5.32  54:  3.16  55:  1.88  56:  1.97
  57:  1.99  58:  1.94  59:  1.92  60:  1.86  61:  1.54  62:  1.94  63:  1.72  64:  1.74
  65:  1.93  66:  1.91  67:  1.87  68:  1.98  69:  1.91  70:  1.71  71:  1.70  72:  1.76
  73:  1.52  74:  1.50  75:  1.59  76:  1.72  77:  1.55  78:  1.60  79:  1.95  80:  1.93
  81:  1.27
 IR intensities (km·mol⁻¹)
   1:  0.00   2:  0.00   3:  0.00   4:  0.00   5:  0.00   6:  0.00   7:  0.00   8:  0.01
   9:  0.04  10:  0.06  11:  0.13  12:  0.01  13:  0.09  14:  0.08  15:  0.25  16:  0.03
  17:  0.26  18:  0.75  19:  1.52  20:  6.86  21:  0.11  22:  0.72  23:  0.72  24:  2.99
  25:  6.24  26:  0.14  27:  1.15  28:  0.28  29:  7.46  30:  0.55  31:  0.12  32:  0.64
  33:  0.19  34:  0.40  35:  0.58  36:  1.83  37:  0.22  38:  0.56  39:  0.26  40:  1.10
  41:  0.19  42:  1.16  43:  0.36  44:  0.73  45:  0.29  46:  0.44  47:  0.72  48:  2.00
  49:  0.83  50:  2.31  51:  0.12  52:  0.48  53:  0.48  54:  0.67  55:  0.02  56:  0.06
  57:  0.06  58:  0.22  59:  0.43  60:  0.23  61:  2.35  62:  0.31  63:  1.04  64: 26.04
  65:  7.87  66: 27.84  67:  7.29  68: 17.75  69:  3.48  70:  2.32  71: 40.16  72: 31.76
  73:  5.54  74: 93.30  75:164.54  76:223.17  77: 21.15  78:108.11  79: 65.99  80: 62.42
  81: 33.95
 Raman intensities (Ä⁴*amu⁻¹)
   1:  0.00   2:  0.00   3:  0.00   4:  0.00   5:  0.00   6:  0.00   7:  0.00   8:  0.00
   9:  0.00  10:  0.00  11:  0.00  12:  0.00  13:  0.00  14:  0.00  15:  0.00  16:  0.00
  17:  0.00  18:  0.00  19:  0.00  20:  0.00  21:  0.00  22:  0.00  23:  0.00  24:  0.00
  25:  0.00  26:  0.00  27:  0.00  28:  0.00  29:  0.00  30:  0.00  31:  0.00  32:  0.00
  33:  0.00  34:  0.00  35:  0.00  36:  0.00  37:  0.00  38:  0.00  39:  0.00  40:  0.00
  41:  0.00  42:  0.00  43:  0.00  44:  0.00  45:  0.00  46:  0.00  47:  0.00  48:  0.00
  49:  0.00  50:  0.00  51:  0.00  52:  0.00  53:  0.00  54:  0.00  55:  0.00  56:  0.00
  57:  0.00  58:  0.00  59:  0.00  60:  0.00  61:  0.00  62:  0.00  63:  0.00  64:  0.00
  65:  0.00  66:  0.00  67:  0.00  68:  0.00  69:  0.00  70:  0.00  71:  0.00  72:  0.00
  73:  0.00  74:  0.00  75:  0.00  76:  0.00  77:  0.00  78:  0.00  79:  0.00  80:  0.00
  81:  0.00
 output can be read by thermo (or use thermo option).
 writing <g98.out> molden fake output.
 recommended (thermochemical) frequency scaling factor: 1.0
           -------------------------------------------------
          |             Thermodynamic Functions             |
           -------------------------------------------------

Molecule has no symmetry elements
It seems to be the C1 point group
c1  symmetry found (for desy threshold:  0.10E+00) used in thermo

          ...................................................
          :                      SETUP                      :
          :.................................................:
          :  # frequencies                          75      :
          :  # imaginary freq.                       0      :
          :  linear?                             false      :
          :  only rotor calc.                    false      :
          :  symmetry                               c1      :
          :  rotational number                       1      :
          :  scaling factor                  1.0000000      :
          :  rotor cutoff                   50.0000000 cm⁻¹ :
          :  imag. cutoff                  -20.0000000 cm⁻¹ :
          :.................................................:

    mode    ω/cm⁻¹     T·S(HO)/kcal·mol⁻¹    T·S(FR)/kcal·mol⁻¹   T·S(vib)
   ------------------------------------------------------------------------
       1     58.71    -1.34168 ( 65.53%)    -1.00880 ( 34.47%)    -1.22694
       2     73.46    -1.21006 ( 82.33%)    -0.94247 ( 17.67%)    -1.16277
       3    118.35    -0.93234 ( 96.91%)    -0.80121 (  3.09%)    -0.92829
       4    188.27    -0.66929 ( 99.50%)    -0.66373 (  0.50%)    -0.66926
       5    226.88    -0.56753 ( 99.76%)    -0.60847 (  0.24%)    -0.56762
       6    235.55    -0.54747 ( 99.80%)    -0.59736 (  0.20%)    -0.54757
       7    292.84    -0.43454 ( 99.92%)    -0.53287 (  0.08%)    -0.43463
   ------------------------------------------------------------------------

   temp. (K)  partition function   enthalpy   heat capacity  entropy
                                   cal/mol     cal/K/mol   cal/K/mol   J/K/mol
 298.15  VIB   455.                 4431.354     31.398     26.472
         ROT  0.613E+06              888.752      2.981     29.462
         INT  0.279E+09             5320.106     34.379     55.934
         TR   0.137E+28             1481.254      4.968     40.394
         TOT                        6801.3600    39.3469    96.3279   403.0361

       T/K    H(0)-H(T)+PV         H(T)/Eh          T*S/Eh         G(T)/Eh
   ------------------------------------------------------------------------
    298.15    0.108387E-01    0.263270E+00    0.457685E-01    0.217501E+00
   ------------------------------------------------------------------------

         :::::::::::::::::::::::::::::::::::::::::::::::::::::
         ::                  THERMODYNAMIC                  ::
         :::::::::::::::::::::::::::::::::::::::::::::::::::::
         :: total free energy         -28.263757879610 Eh   ::
         ::.................................................::
         :: total energy              -28.481259212563 Eh   ::
         :: zero point energy           0.252431188072 Eh   ::
         :: G(RRHO) w/o ZPVE           -0.034929855119 Eh   ::
         :: G(RRHO) contrib.            0.217501332954 Eh   ::
         :::::::::::::::::::::::::::::::::::::::::::::::::::::

           -------------------------------------------------
          | TOTAL ENERGY              -28.481259212563 Eh   |
          | TOTAL ENTHALPY            -28.217989367421 Eh   |
          | TOTAL FREE ENERGY         -28.263757879610 Eh   |
          | GRADIENT NORM               0.000120179737 Eh/α |
          | HOMO-LUMO GAP              12.447508740457 eV   |
           -------------------------------------------------

------------------------------------------------------------------------
 * finished run on 2026/09/17 at 00:40:33.496     
------------------------------------------------------------------------
 total:
 * wall-time:     0 d,  0 h,  0 min,  0.494 sec
 *  cpu-time:     0 d,  0 h,  0 min,  1.938 sec
 * ratio c/w:     3.922 speedup
 SCF:
 * wall-time:     0 d,  0 h,  0 min,  0.008 sec
 *  cpu-time:     0 d,  0 h,  0 min,  0.062 sec
 * ratio c/w:     7.813 speedup
 analytical hessian:
 * wall-time:     0 d,  0 h,  0 min,  0.458 sec
 *  cpu-time:     0 d,  0 h,  0 min,  1.812 sec
 * ratio c/w:     3.957 speedup

