26
Coordinates from ORCA-job optfreq E -688.288585505668
  C      -3.169241     -0.521067      0.310631
  C      -1.843969      0.166682      0.659907
  C      -0.681643     -0.423010     -0.145637
  C       0.603255      0.392193      0.114604
  C       1.843677     -0.387320     -0.370439
  C       3.106728      0.459520     -0.201756
  O       4.174321     -0.258250     -0.793361
  O       1.680863     -0.738162     -1.731431
  O       0.506780      1.640731     -0.514574
  O      -1.012518     -0.367531     -1.511873
  O      -1.564753      0.006236      2.030580
  O      -4.206681     -0.037208      1.134708
  H      -3.391730     -0.385567     -0.751934
  H      -3.092202     -1.588844      0.527826
  H      -1.921329      1.241481      0.419861
  H      -0.524882     -1.460308      0.183397
  H       0.702016      0.574219      1.188017
  H       1.946365     -1.303948      0.230764
  H       2.957493      1.422643     -0.705045
  H       3.286519      0.635335      0.864576
  H       4.984649      0.249348     -0.693007
  H       2.563375     -0.953590     -2.061194
  H       0.078786      1.481689     -1.371040
  H      -0.232754     -0.685579     -1.995512
  H      -2.420139     -0.046061      2.481745
  H      -4.372987      0.886367      0.913352
26
Coordinates from ORCA-job optfreq E -688.291141993127
  C      -3.163268     -0.544836      0.310882
  C      -1.855456      0.182413      0.629742
  C      -0.681389     -0.403336     -0.153776
  C       0.609042      0.408252      0.111140
  C       1.846375     -0.369448     -0.367520
  C       3.118189      0.447500     -0.183380
  O       4.174246     -0.314884     -0.770738
  O       1.678891     -0.704901     -1.745310
  O       0.513046      1.681616     -0.496394
  O      -1.017334     -0.356568     -1.532752
  O      -1.548315      0.067762      2.009342
  O      -4.207724     -0.103182      1.175686
  H      -3.418259     -0.417935     -0.748730
  H      -3.038962     -1.614553      0.518895
  H      -1.957647      1.248767      0.349857
  H      -0.531873     -1.442720      0.187156
  H       0.709623      0.566612      1.191996
  H       1.930416     -1.294550      0.230531
  H       2.994616      1.415311     -0.688897
  H       3.288499      0.619052      0.890670
  H       4.997741      0.175164     -0.692353
  H       2.554339     -0.934114     -2.086261
  H       0.070870      1.542204     -1.347624
  H      -0.251446     -0.707406     -2.015925
  H      -2.393771      0.041619      2.477972
  H      -4.420451      0.812157      0.958953
26
Coordinates from ORCA-job optfreq E -688.291795292666
  C      -3.154041     -0.568323      0.318870
  C      -1.863768      0.188916      0.614972
  C      -0.684736     -0.374368     -0.171298
  C       0.608903      0.424081      0.100308
  C       1.843697     -0.357985     -0.356319
  C       3.119913      0.442959     -0.178251
  O       4.173059     -0.368561     -0.721624
  O       1.679441     -0.715449     -1.737216
  O       0.532135      1.710514     -0.500120
  O      -1.035839     -0.300866     -1.553496
  O      -1.530195      0.079579      1.995072
  O      -4.197612     -0.154982      1.213351
  H      -3.437809     -0.444718     -0.733600
  H      -3.000926     -1.636852      0.517853
  H      -1.992244      1.252255      0.333064
  H      -0.534574     -1.420328      0.151409
  H       0.697812      0.574619      1.184347
  H       1.913069     -1.274168      0.258066
  H       3.024600      1.394818     -0.719022
  H       3.275890      0.648286      0.892698
  H       4.999401      0.122296     -0.683417
  H       2.550772     -0.969310     -2.069955
  H       0.105656      1.579951     -1.359697
  H      -0.276302     -0.648752     -2.047029
  H      -2.368650      0.067466      2.476800
  H      -4.447653      0.748920      0.987396
26
Coordinates from ORCA-job optfreq E -688.291996600839
  C      -3.148695     -0.574587      0.320446
  C      -1.864896      0.190928      0.611249
  C      -0.681924     -0.372410     -0.167557
  C       0.611985      0.417165      0.107946
  C       1.845185     -0.354588     -0.359303
  C       3.121861      0.441984     -0.180281
  O       4.175988     -0.381101     -0.709161
  O       1.676165     -0.700852     -1.744617
  O       0.534846      1.716398     -0.469245
  O      -1.032981     -0.296250     -1.552969
  O      -1.533892      0.087976      1.994823
  O      -4.196106     -0.153391      1.211221
  H      -3.436297     -0.461939     -0.731601
  H      -2.995759     -1.640370      0.530266
  H      -1.997588      1.251894      0.325117
  H      -0.535517     -1.419322      0.151685
  H       0.702503      0.551031      1.193781
  H       1.915369     -1.276826      0.245117
  H       3.038064      1.389324     -0.729414
  H       3.274927      0.655254      0.888873
  H       4.995979      0.122054     -0.703677
  H       2.544332     -0.964185     -2.077346
  H       0.104684      1.600348     -1.329064
  H      -0.283620     -0.668003     -2.043311
  H      -2.374550      0.100487      2.473340
  H      -4.460064      0.738979      0.956846
26
Coordinates from ORCA-job optfreq E -688.292123218663
  C      -3.146341     -0.577549      0.321483
  C      -1.864112      0.188860      0.613919
  C      -0.681080     -0.368238     -0.169557
  C       0.612479      0.413703      0.111216
  C       1.845719     -0.355238     -0.357384
  C       3.121187      0.443345     -0.182585
  O       4.180005     -0.387695     -0.689526
  O       1.677001     -0.707046     -1.741770
  O       0.540597      1.718078     -0.456214
  O      -1.034018     -0.277891     -1.554809
  O      -1.534606      0.077337      1.997863
  O      -4.193305     -0.153351      1.212915
  H      -3.438372     -0.463647     -0.728951
  H      -2.996862     -1.643105      0.531728
  H      -1.998796      1.251102      0.336493
  H      -0.534587     -1.418570      0.136744
  H       0.699300      0.542106      1.198008
  H       1.918664     -1.276786      0.247441
  H       3.044613      1.381207     -0.747813
  H       3.270430      0.673955      0.883188
  H       4.988036      0.133158     -0.727597
  H       2.542879     -0.988644     -2.065435
  H       0.118447      1.608345     -1.321076
  H      -0.289332     -0.655655     -2.047608
  H      -2.375994      0.113846      2.474181
  H      -4.471950      0.728373      0.938306
26
Coordinates from ORCA-job optfreq E -688.292191388301
  C      -3.146736     -0.575627      0.320502
  C      -1.861750      0.185479      0.618360
  C      -0.679968     -0.369634     -0.168461
  C       0.613427      0.410117      0.115880
  C       1.847028     -0.357329     -0.356236
  C       3.120950      0.444629     -0.182148
  O       4.184144     -0.385208     -0.680080
  O       1.678295     -0.708695     -1.739785
  O       0.542409      1.715525     -0.447667
  O      -1.032076     -0.271813     -1.552727
  O      -1.535909      0.064618      2.001518
  O      -4.193105     -0.144998      1.209155
  H      -3.437347     -0.458922     -0.729939
  H      -3.003545     -1.641732      0.531196
  H      -1.993499      1.249723      0.348190
  H      -0.533489     -1.422006      0.130368
  H       0.699894      0.536728      1.202785
  H       1.924168     -1.279935      0.246412
  H       3.044669      1.378605     -0.753456
  H       3.268443      0.682323      0.882313
  H       4.978562      0.151656     -0.759220
  H       2.541633     -1.006399     -2.055994
  H       0.124567      1.607898     -1.315066
  H      -0.290186     -0.654057     -2.046278
  H      -2.377459      0.121558      2.475574
  H      -4.483123      0.727496      0.917967
26
Coordinates from ORCA-job optfreq E -688.292222292565
  C      -3.148062     -0.573036      0.319241
  C      -1.860241      0.183220      0.621003
  C      -0.679582     -0.371397     -0.167639
  C       0.614058      0.409918      0.117882
  C       1.847901     -0.358274     -0.355119
  C       3.121601      0.444506     -0.178828
  O       4.186793     -0.383364     -0.675029
  O       1.680072     -0.706959     -1.738648
  O       0.542312      1.713628     -0.447856
  O      -1.030552     -0.271720     -1.551095
  O      -1.535655      0.056594      2.003035
  O      -4.193204     -0.140463      1.207714
  H      -3.436605     -0.452698     -0.731343
  H      -3.007376     -1.640003      0.527870
  H      -1.989518      1.248730      0.353963
  H      -0.532617     -1.424322      0.129270
  H       0.701376      0.538067      1.204404
  H       1.926266     -1.281739      0.246184
  H       3.044114      1.378506     -0.749921
  H       3.267453      0.682304      0.885972
  H       4.971625      0.162258     -0.783712
  H       2.541405     -1.015311     -2.050339
  H       0.125812      1.604349     -1.315718
  H      -0.288940     -0.654143     -2.044954
  H      -2.376003      0.125101      2.477537
  H      -4.492433      0.726249      0.909288
26
Coordinates from ORCA-job optfreq E -688.292235144830
  C      -3.149052     -0.571270      0.318414
  C      -1.859786      0.182693      0.621711
  C      -0.679496     -0.372404     -0.166897
  C       0.614467      0.411253      0.118115
  C       1.848255     -0.358198     -0.354312
  C       3.122733      0.443317     -0.174833
  O       4.188029     -0.383360     -0.672912
  O       1.681458     -0.703481     -1.738517
  O       0.541746      1.712979     -0.451159
  O      -1.029612     -0.274510     -1.550116
  O      -1.534843      0.054135      2.002990
  O      -4.193452     -0.139518      1.207579
  H      -3.435767     -0.448618     -0.732413
  H      -3.008073     -1.638833      0.524793
  H      -1.988049      1.248535      0.354569
  H      -0.532095     -1.424853      0.131802
  H       0.702845      0.541389      1.204242
  H       1.925463     -1.282310      0.246287
  H       3.044488      1.379347     -0.742552
  H       3.267501      0.677475      0.891024
  H       4.967418      0.165969     -0.800208
  H       2.541655     -1.016478     -2.048789
  H       0.124157      1.601371     -1.318153
  H      -0.287183     -0.655631     -2.043785
  H      -2.373751      0.126853      2.479184
  H      -4.499059      0.724147      0.907098
26
Coordinates from ORCA-job optfreq E -688.292238702856
  C      -3.149290     -0.570767      0.318155
  C      -1.860001      0.183278      0.621355
  C      -0.679509     -0.372472     -0.166472
  C       0.614585      0.412165      0.117681
  C       1.848242     -0.358004     -0.353842
  C       3.123444      0.442183     -0.172612
  O       4.188213     -0.384071     -0.672668
  O       1.682102     -0.701715     -1.738540
  O       0.541651      1.713027     -0.453416
  O      -1.029306     -0.276738     -1.549846
  O      -1.534429      0.055211      2.002496
  O      -4.193632     -0.140484      1.207723
  H      -3.435137     -0.447479     -0.732866
  H      -3.007283     -1.638515      0.523320
  H      -1.988392      1.248921      0.353162
  H      -0.532048     -1.424294      0.134514
  H       0.703255      0.543200      1.203691
  H       1.923890     -1.282259      0.246795
  H       3.045161      1.379895     -0.737552
  H       3.267997      0.673215      0.893984
  H       4.965671      0.166151     -0.807586
  H       2.542320     -1.014253     -2.049217
  H       0.122529      1.600358     -1.319494
  H      -0.285952     -0.656533     -2.043179
  H      -2.372626      0.127455      2.479890
  H      -4.501459      0.722525      0.907687
26
Coordinates from ORCA-job optfreq E -688.292240215810
  C      -3.149237     -0.570653      0.318024
  C      -1.860296      0.184028      0.620899
  C      -0.679484     -0.372373     -0.166106
  C       0.614615      0.412359      0.117424
  C       1.848184     -0.358129     -0.353458
  C       3.123763      0.441327     -0.171486
  O       4.188149     -0.384410     -0.673154
  O       1.682465     -0.701442     -1.738331
  O       0.541885      1.713001     -0.454303
  O      -1.029102     -0.278280     -1.549702
  O      -1.534481      0.056999      2.002163
  O      -4.193825     -0.141367      1.207479
  H      -3.434567     -0.447382     -0.733173
  H      -3.006593     -1.638424      0.522677
  H      -1.988956      1.249416      0.351861
  H      -0.532230     -1.423727      0.136638
  H       0.703130      0.543621      1.203461
  H       1.922722     -1.282343      0.247402
  H       3.045478      1.380188     -0.734480
  H       3.268581      0.670182      0.895542
  H       4.964379      0.166459     -0.812364
  H       2.543260     -1.011702     -2.049715
  H       0.121487      1.600111     -1.319718
  H      -0.284930     -0.656997     -2.042668
  H      -2.372504      0.127707      2.480038
  H      -4.501894      0.721829      0.908210
26
Coordinates from ORCA-job optfreq E -688.292241041037
  C      -3.149112     -0.570617      0.317862
  C      -1.860506      0.184618      0.620580
  C      -0.679417     -0.372352     -0.165754
  C       0.614637      0.412037      0.117516
  C       1.848169     -0.358562     -0.353047
  C       3.123816      0.440740     -0.170952
  O       4.188107     -0.384256     -0.673920
  O       1.682715     -0.702153     -1.737843
  O       0.542294      1.712770     -0.454221
  O      -1.028853     -0.279260     -1.549538
  O      -1.534880      0.058576      2.002068
  O      -4.194055     -0.141710      1.206881
  H      -3.434100     -0.447605     -0.733491
  H      -3.006315     -1.638360      0.522461
  H      -1.989288      1.249829      0.351063
  H      -0.532522     -1.423454      0.138047
  H       0.702804      0.543214      1.203631
  H       1.922154     -1.282683      0.248035
  H       3.045339      1.380311     -0.732690
  H       3.269144      0.668261      0.896288
  H       4.962992      0.167594     -0.816655
  H       2.544332     -1.009635     -2.049777
  H       0.121052      1.600092     -1.319256
  H      -0.284017     -0.657166     -2.042167
  H      -2.373098      0.127794      2.479812
  H      -4.501393      0.721975      0.908232
26
Coordinates from ORCA-job optfreq E -688.292241395868
  C      -3.149046     -0.570595      0.317710
  C      -1.860577      0.184833      0.620449
  C      -0.679362     -0.372444     -0.165551
  C       0.614656      0.411584      0.117819
  C       1.848196     -0.359025     -0.352711
  C       3.123719      0.440493     -0.170786
  O       4.188144     -0.383862     -0.674511
  O       1.682865     -0.703078     -1.737341
  O       0.542615      1.712474     -0.453726
  O      -1.028619     -0.279598     -1.549426
  O      -1.535338      0.059349      2.002118
  O      -4.194222     -0.141512      1.206343
  H      -3.433949     -0.447882     -0.733711
  H      -3.006417     -1.638292      0.522575
  H      -1.989298      1.249987      0.350793
  H      -0.532765     -1.423527      0.138471
  H       0.702541      0.542634      1.203983
  H       1.922149     -1.283094      0.248464
  H       3.044951      1.380312     -0.732036
  H       3.269502      0.667568      0.896480
  H       4.961885      0.168957     -0.819661
  H       2.545149     -1.008586     -2.049454
  H       0.121151      1.600073     -1.318693
  H      -0.283451     -0.657148     -2.041854
  H      -2.373904      0.127732      2.479400
  H      -4.500575      0.722647      0.908020
