 Entering Gaussian System
 *********************************************
 Gaussian 98:
 frequency output generated by the xtb code
 *********************************************
                         Standard orientation:
 --------------------------------------------------------------------
  Center     Atomic     Atomic              Coordinates (Angstroms)
  Number     Number      Type              X           Y           Z
 --------------------------------------------------------------------
    1          6             0       -1.910667   -0.022774   -0.043103
    2          6             0       -0.423859   -0.037074   -0.018163
    3          6             0        0.487264    0.937251    0.261175
    4          6             0        1.765937    0.339367    0.125335
    5          6             0        1.535772   -0.951865   -0.225937
    6          8             0        0.214305   -1.190140   -0.315518
    7          1             0       -2.271551    0.967871    0.215979
    8          1             0       -2.277226   -0.288897   -1.033882
    9          1             0       -2.310154   -0.745770    0.667190
   10          1             0        0.278093    1.952537    0.529827
   11          1             0        2.716562    0.810228    0.270207
   12          1             0        2.195524   -1.770732   -0.433109
 --------------------------------------------------------------------
     1 basis functions        1 primitive gaussians
     1 alpha electrons        1 beta electrons
 
 Harmonic frequencies (cm**-1), IR intensities (km*mol⁻¹),
 Raman scattering activities (A**4/amu), Raman depolarization ratios,
 reduced masses (AMU), force constants (mDyne/A) and normal coordinates:
                      1                      2                      3
                        a                      a                      a 
 Frequencies --    58.3680               244.8296               316.8285
 Red. masses --     1.6595                 9.5415                 9.1124
 Frc consts  --     0.0000                 0.0000                 0.0000
 IR Inten    --     0.1069                 1.9637                 1.5737
 Raman Activ --     0.0000                 0.0000                 0.0000
 Depolar     --     0.0000                 0.0000                 0.0000
 Atom AN      X      Y      Z        X      Y      Z        X      Y      Z
   1   6    -0.00  -0.01   0.03     0.01   0.10  -0.35     0.02  -0.45  -0.12
   2   6     0.00   0.01  -0.02    -0.01  -0.13   0.48     0.03   0.36   0.10
   3   6    -0.00  -0.03   0.11    -0.01  -0.07   0.27     0.25   0.19   0.05
   4   6    -0.00  -0.02   0.09     0.01   0.08  -0.29     0.12  -0.14  -0.03
   5   6     0.00   0.02  -0.06     0.00   0.07  -0.26    -0.18  -0.08  -0.03
   6   8     0.00   0.04  -0.15    -0.01  -0.09   0.33    -0.24   0.30   0.08
   7   1     0.01   0.14  -0.52     0.00   0.06  -0.22    -0.24  -0.21  -0.06
   8   1    -0.01  -0.55   0.16     0.20   0.01  -0.17     0.13  -0.23  -0.06
   9   1    -0.00   0.39   0.41    -0.19   0.08  -0.16     0.13  -0.23  -0.06
  10   1    -0.00  -0.02   0.06    -0.00  -0.03   0.11     0.16   0.07   0.02
  11   1    -0.00  -0.01   0.05     0.00   0.05  -0.20     0.07  -0.10  -0.03
  12   1     0.00   0.01  -0.04     0.00   0.04  -0.15    -0.11  -0.07  -0.02
                      4                      5                      6
                        a                      a                      a 
 Frequencies --   587.0632               606.2803               659.8149
 Red. masses --    10.3036                11.8884                10.7706
 Frc consts  --     0.0000                 0.0000                 0.0000
 IR Inten    --     0.5721                 2.6669                 0.0282
 Raman Activ --     0.0000                 0.0000                 0.0000
 Depolar     --     0.0000                 0.0000                 0.0000
 Atom AN      X      Y      Z        X      Y      Z        X      Y      Z
   1   6    -0.00  -0.00   0.02     0.00   0.02  -0.08    -0.67   0.01  -0.01
   2   6    -0.00  -0.05   0.18     0.01   0.17  -0.62    -0.27   0.06   0.01
   3   6     0.01   0.11  -0.41    -0.01  -0.09   0.32     0.16  -0.20  -0.05
   4   6    -0.01  -0.14   0.53    -0.00  -0.01   0.02     0.32  -0.05  -0.01
   5   6     0.01   0.13  -0.50     0.00   0.07  -0.26     0.28  -0.01   0.00
   6   8    -0.00  -0.06   0.22    -0.01  -0.14   0.52     0.24   0.16   0.05
   7   1     0.00   0.00  -0.01    -0.00  -0.02   0.06    -0.20   0.00  -0.00
   8   1     0.04   0.00  -0.01    -0.18  -0.01   0.05    -0.19   0.01  -0.00
   9   1    -0.04   0.00  -0.01     0.18  -0.02   0.06    -0.19   0.01  -0.00
  10   1     0.00   0.06  -0.23    -0.00  -0.03   0.10     0.14  -0.04  -0.01
  11   1    -0.00  -0.07   0.24     0.00   0.01  -0.04     0.06   0.04   0.01
  12   1     0.00   0.06  -0.21     0.00   0.05  -0.17     0.02  -0.05  -0.01
                      7                      8                      9
                        a                      a                      a 
 Frequencies --   762.1095               820.4608               842.4483
 Red. masses --     2.9621                 2.9240                 3.3890
 Frc consts  --     0.0000                 0.0000                 0.0000
 IR Inten    --     9.0802                 9.2135                 0.3998
 Raman Activ --     0.0000                 0.0000                 0.0000
 Depolar     --     0.0000                 0.0000                 0.0000
 Atom AN      X      Y      Z        X      Y      Z        X      Y      Z
   1   6     0.00   0.00  -0.00     0.00  -0.00   0.00    -0.00  -0.00   0.01
   2   6     0.00   0.00  -0.01     0.00   0.00  -0.01    -0.00  -0.00   0.01
   3   6     0.00   0.00  -0.01    -0.01  -0.09   0.32    -0.00  -0.07   0.27
   4   6     0.00   0.01  -0.03    -0.00  -0.05   0.20     0.01   0.10  -0.36
   5   6    -0.01  -0.11   0.40     0.00   0.02  -0.07     0.00   0.01  -0.05
   6   8     0.00   0.01  -0.05     0.00   0.03  -0.11    -0.00  -0.01   0.02
   7   1    -0.00  -0.00   0.00    -0.00  -0.00   0.01     0.00   0.00  -0.01
   8   1     0.00   0.00  -0.00    -0.00  -0.00   0.00     0.02   0.00  -0.01
   9   1    -0.00  -0.00  -0.00     0.00  -0.00   0.00    -0.02   0.00  -0.01
  10   1     0.00   0.05  -0.18     0.01   0.19  -0.71     0.01   0.13  -0.47
  11   1     0.00   0.00  -0.01     0.01   0.13  -0.50    -0.01  -0.19   0.71
  12   1     0.02   0.23  -0.86    -0.00  -0.03   0.12    -0.00  -0.02   0.08
                     10                     11                     12
                        a                      a                      a 
 Frequencies --   860.2185               944.4840               990.2327
 Red. masses --    11.6045                 9.7668                 4.7070
 Frc consts  --     0.0000                 0.0000                 0.0000
 IR Inten    --     0.8833                19.1161                 1.4436
 Raman Activ --     0.0000                 0.0000                 0.0000
 Depolar     --     0.0000                 0.0000                 0.0000
 Atom AN      X      Y      Z        X      Y      Z        X      Y      Z
   1   6    -0.00  -0.04  -0.01     0.23  -0.16  -0.04     0.12   0.36   0.10
   2   6     0.00  -0.16  -0.04    -0.11  -0.15  -0.04    -0.09   0.08   0.02
   3   6     0.23  -0.26  -0.07    -0.09  -0.35  -0.10    -0.08  -0.31  -0.09
   4   6     0.47   0.29   0.09     0.07  -0.02  -0.00     0.05   0.00   0.00
   5   6    -0.36   0.41   0.10     0.01  -0.03  -0.01     0.18  -0.03  -0.00
   6   8    -0.30  -0.20  -0.06    -0.04   0.60   0.16    -0.12  -0.02  -0.01
   7   1     0.01  -0.01  -0.00     0.33   0.05   0.02    -0.48  -0.09  -0.03
   8   1    -0.01  -0.00  -0.00    -0.05   0.07   0.00     0.31  -0.17  -0.01
   9   1    -0.01  -0.00  -0.00    -0.05   0.06   0.03     0.32  -0.16  -0.06
  10   1    -0.12  -0.11  -0.03    -0.07  -0.11  -0.03    -0.14  -0.11  -0.03
  11   1     0.19  -0.02  -0.00    -0.10   0.22   0.06    -0.16   0.32   0.08
  12   1    -0.10   0.11   0.03    -0.29  -0.23  -0.07    -0.00  -0.05  -0.01
                     13                     14                     15
                        a                      a                      a 
 Frequencies --  1037.1679              1046.8474              1116.6775
 Red. masses --     4.4290                 2.9275                 6.3137
 Frc consts  --     0.0000                 0.0000                 0.0000
 IR Inten    --     9.3601                16.8283                11.7655
 Raman Activ --     0.0000                 0.0000                 0.0000
 Depolar     --     0.0000                 0.0000                 0.0000
 Atom AN      X      Y      Z        X      Y      Z        X      Y      Z
   1   6     0.01   0.11  -0.42     0.04  -0.09  -0.02     0.15   0.08   0.03
   2   6    -0.01  -0.09   0.34    -0.03   0.02   0.01    -0.21  -0.05  -0.02
   3   6     0.00   0.00  -0.02     0.20  -0.09  -0.02    -0.08  -0.35  -0.10
   4   6     0.00   0.01  -0.02    -0.13   0.08   0.02    -0.20  -0.11  -0.03
   5   6    -0.00  -0.00   0.01    -0.01   0.05   0.01    -0.17   0.21   0.05
   6   8     0.00   0.01  -0.04    -0.18  -0.17  -0.05     0.19   0.24   0.07
   7   1    -0.00  -0.06   0.22     0.13   0.02   0.01    -0.04  -0.01  -0.00
   8   1    -0.54  -0.08   0.14    -0.04   0.03   0.00     0.11  -0.04  -0.00
   9   1     0.54  -0.00   0.18    -0.05   0.03   0.01     0.11  -0.04  -0.01
  10   1     0.00   0.01  -0.02     0.67   0.09   0.04     0.37  -0.03  -0.00
  11   1    -0.00  -0.00   0.02    -0.29   0.49   0.13     0.14  -0.41  -0.11
  12   1    -0.00  -0.00   0.00     0.11   0.10   0.03     0.28   0.31   0.09
                     16                     17                     18
                        a                      a                      a 
 Frequencies --  1133.7225              1207.7245              1255.5229
 Red. masses --     6.4842                 8.7244                11.6069
 Frc consts  --     0.0000                 0.0000                 0.0000
 IR Inten    --     9.3653                20.5761                23.1981
 Raman Activ --     0.0000                 0.0000                 0.0000
 Depolar     --     0.0000                 0.0000                 0.0000
 Atom AN      X      Y      Z        X      Y      Z        X      Y      Z
   1   6     0.03  -0.13  -0.03    -0.12   0.00  -0.00    -0.17   0.11   0.03
   2   6    -0.04   0.12   0.03     0.21   0.03   0.01     0.42  -0.53  -0.14
   3   6     0.03  -0.05  -0.01     0.39  -0.09  -0.02     0.23   0.04   0.01
   4   6     0.10  -0.11  -0.03    -0.20  -0.12  -0.04    -0.28   0.20   0.05
   5   6     0.33  -0.10  -0.02    -0.49  -0.09  -0.03     0.18  -0.04  -0.01
   6   8    -0.47   0.13   0.02     0.33   0.13   0.04    -0.30   0.28   0.07
   7   1     0.18   0.03   0.01    -0.08  -0.02  -0.01    -0.23  -0.04  -0.02
   8   1    -0.06   0.05  -0.00    -0.06   0.02   0.00    -0.04  -0.06   0.02
   9   1    -0.06   0.04   0.03    -0.06   0.02   0.00    -0.03  -0.04  -0.05
  10   1    -0.30  -0.07  -0.02    -0.35  -0.12  -0.04     0.10   0.01   0.00
  11   1    -0.00   0.03   0.01    -0.22   0.25   0.06     0.03  -0.15  -0.04
  12   1     0.57   0.34   0.10     0.17   0.21   0.06     0.01  -0.04  -0.01
                     19                     20                     21
                        a                      a                      a 
 Frequencies --  1373.5999              1398.6155              1462.6868
 Red. masses --    10.0363                 3.7000                 1.5524
 Frc consts  --     0.0000                 0.0000                 0.0000
 IR Inten    --    22.3658                 6.6900                 4.8263
 Raman Activ --     0.0000                 0.0000                 0.0000
 Depolar     --     0.0000                 0.0000                 0.0000
 Atom AN      X      Y      Z        X      Y      Z        X      Y      Z
   1   6    -0.03  -0.08  -0.02    -0.45   0.03  -0.00     0.00   0.06  -0.21
   2   6    -0.18   0.31   0.08     0.06  -0.12  -0.03     0.00   0.01  -0.04
   3   6     0.45  -0.25  -0.06    -0.02   0.08   0.02    -0.00   0.00  -0.00
   4   6    -0.47   0.27   0.06     0.06  -0.03  -0.01     0.00  -0.00   0.00
   5   6     0.25   0.05   0.02    -0.06  -0.03  -0.01     0.00  -0.00  -0.00
   6   8    -0.02  -0.17  -0.04     0.01   0.04   0.01    -0.00  -0.00   0.01
   7   1     0.16   0.04   0.02     0.45   0.18   0.06    -0.01  -0.19   0.70
   8   1     0.07   0.05  -0.05     0.47  -0.07  -0.17     0.27  -0.37  -0.02
   9   1     0.07   0.02   0.07     0.47  -0.15   0.13    -0.28   0.33   0.16
  10   1    -0.16  -0.13  -0.04     0.01   0.03   0.01     0.00  -0.00   0.00
  11   1     0.02  -0.22  -0.06    -0.01   0.04   0.01     0.00   0.00   0.00
  12   1    -0.16  -0.16  -0.04     0.03   0.03   0.01     0.00  -0.00   0.00
                     22                     23                     24
                        a                      a                      a 
 Frequencies --  1470.7844              1501.9617              1604.6375
 Red. masses --     2.4057                10.6899                11.3778
 Frc consts  --     0.0000                 0.0000                 0.0000
 IR Inten    --    17.1203                31.8805                13.6177
 Raman Activ --     0.0000                 0.0000                 0.0000
 Depolar     --     0.0000                 0.0000                 0.0000
 Atom AN      X      Y      Z        X      Y      Z        X      Y      Z
   1   6    -0.05  -0.21  -0.06     0.12  -0.02  -0.00     0.15   0.02   0.01
   2   6     0.18   0.03   0.01    -0.36  -0.14  -0.05    -0.54  -0.38  -0.11
   3   6    -0.10  -0.07  -0.02     0.07   0.10   0.03     0.37   0.36   0.10
   4   6    -0.01  -0.10  -0.03     0.11   0.52   0.14    -0.03  -0.32  -0.09
   5   6     0.03   0.12   0.03    -0.18  -0.57  -0.16     0.10   0.25   0.07
   6   8    -0.03  -0.00  -0.00     0.09   0.06   0.02     0.00   0.01   0.00
   7   1    -0.30  -0.12  -0.04    -0.10  -0.04  -0.01    -0.06  -0.03  -0.01
   8   1     0.15   0.56  -0.22     0.08   0.13  -0.06     0.07   0.05  -0.03
   9   1     0.14   0.37   0.47     0.08   0.09   0.12     0.07   0.03   0.05
  10   1     0.03  -0.01  -0.00     0.04   0.04   0.01    -0.12   0.08   0.02
  11   1    -0.02  -0.00  -0.00     0.13  -0.00   0.00    -0.09   0.05   0.01
  12   1    -0.04   0.00   0.00     0.19  -0.00   0.00    -0.06   0.02   0.00
                     25                     26                     27
                        a                      a                      a 
 Frequencies --  3003.3206              3017.4019              3062.8140
 Red. masses --     1.9402                 1.4667                 1.7350
 Frc consts  --     0.0000                 0.0000                 0.0000
 IR Inten    --    18.9708                21.9960                15.4831
 Raman Activ --     0.0000                 0.0000                 0.0000
 Depolar     --     0.0000                 0.0000                 0.0000
 Atom AN      X      Y      Z        X      Y      Z        X      Y      Z
   1   6     0.01   0.08  -0.28    -0.12  -0.16  -0.04     0.08  -0.24  -0.06
   2   6     0.00   0.00  -0.01    -0.01  -0.01  -0.00     0.00  -0.01  -0.00
   3   6     0.00   0.00  -0.00     0.00   0.00   0.00    -0.00   0.00   0.00
   4   6    -0.00  -0.00   0.00     0.00   0.00   0.00    -0.00  -0.00  -0.00
   5   6    -0.00   0.00  -0.00    -0.00  -0.00  -0.00    -0.00   0.00  -0.00
   6   8     0.00  -0.00   0.00     0.00   0.00   0.00     0.00   0.00   0.00
   7   1     0.00   0.01  -0.04    -0.01  -0.04  -0.01    -0.31   0.88   0.23
   8   1     0.23   0.19   0.61     0.21   0.15   0.64     0.01  -0.03   0.00
   9   1    -0.25  -0.46   0.42     0.24   0.45  -0.47     0.01  -0.02  -0.02
  10   1     0.00  -0.00  -0.00     0.00   0.00   0.00     0.00  -0.01  -0.00
  11   1    -0.00  -0.00   0.00    -0.00  -0.00  -0.00     0.00   0.00   0.00
  12   1    -0.00   0.00  -0.00    -0.00   0.00   0.00     0.00  -0.00  -0.00
                     28                     29                     30
                        a                      a                      a 
 Frequencies --  3167.4998              3178.7466              3189.0292
 Red. masses --     1.8161                 1.8775                 1.9891
 Frc consts  --     0.0000                 0.0000                 0.0000
 IR Inten    --     4.5551                28.4341                19.8851
 Raman Activ --     0.0000                 0.0000                 0.0000
 Depolar     --     0.0000                 0.0000                 0.0000
 Atom AN      X      Y      Z        X      Y      Z        X      Y      Z
   1   6    -0.00  -0.00  -0.00    -0.00   0.00   0.00    -0.00  -0.00  -0.00
   2   6     0.00  -0.00  -0.00    -0.01  -0.00  -0.00     0.01   0.00   0.00
   3   6     0.01  -0.03  -0.01    -0.04   0.22   0.06     0.03  -0.15  -0.04
   4   6     0.10   0.05   0.01    -0.11  -0.06  -0.02    -0.20  -0.11  -0.03
   5   6    -0.14   0.19   0.05    -0.05   0.08   0.02    -0.05   0.08   0.02
   6   8    -0.00   0.00   0.00    -0.00   0.00   0.00    -0.00   0.00   0.00
   7   1    -0.00   0.00   0.00     0.00  -0.01  -0.00    -0.00   0.00   0.00
   8   1     0.00   0.00   0.00     0.00   0.00   0.00     0.00   0.00   0.00
   9   1     0.00   0.00  -0.00     0.00   0.00  -0.00     0.00   0.00  -0.00
  10   1    -0.02   0.10   0.03     0.15  -0.76  -0.20    -0.10   0.49   0.13
  11   1    -0.37  -0.19  -0.06     0.38   0.19   0.06     0.66   0.33   0.10
  12   1     0.53  -0.65  -0.17     0.19  -0.23  -0.06     0.18  -0.23  -0.06
