 Entering Gaussian System
 *********************************************
 Gaussian 98:
 frequency output generated by the xtb code
 *********************************************
                         Standard orientation:
 --------------------------------------------------------------------
  Center     Atomic     Atomic              Coordinates (Angstroms)
  Number     Number      Type              X           Y           Z
 --------------------------------------------------------------------
    1          6             0        4.136768   -0.363226    0.043827
    2          6             0        2.841087    0.281769   -0.432498
    3          6             0        1.612267   -0.418658    0.142380
    4          6             0        0.309129    0.220866   -0.331892
    5          6             0       -0.911025   -0.467342    0.276474
    6          6             0       -2.248938    0.038079   -0.274407
    7          6             0       -2.508450    1.492967    0.109007
    8          6             0       -3.386636   -0.843540    0.238693
    9          1             0        4.206385   -0.322537    1.128788
   10          1             0        4.998654    0.151318   -0.374841
   11          1             0        4.178179   -1.406590   -0.261624
   12          1             0        2.828873    1.333000   -0.135016
   13          1             0        2.798230    0.247241   -1.523671
   14          1             0        1.627614   -1.470865   -0.152294
   15          1             0        1.655328   -0.381751    1.233680
   16          1             0        0.315238    1.277390   -0.058825
   17          1             0        0.253160    0.159040   -1.421588
   18          1             0       -0.897610   -0.333632    1.360896
   19          1             0       -0.838034   -1.539753    0.077458
   20          1             0       -2.221313   -0.034026   -1.367954
   21          1             0       -3.488750    1.806482   -0.243605
   22          1             0       -1.765557    2.153338   -0.329937
   23          1             0       -2.480553    1.609919    1.190515
   24          1             0       -4.340261   -0.513612   -0.167347
   25          1             0       -3.441618   -0.795191    1.324342
   26          1             0       -3.232167   -1.880687   -0.050563
 --------------------------------------------------------------------
     1 basis functions        1 primitive gaussians
     1 alpha electrons        1 beta electrons
 
 Harmonic frequencies (cm**-1), IR intensities (km*mol⁻¹),
 Raman scattering activities (A**4/amu), Raman depolarization ratios,
 reduced masses (AMU), force constants (mDyne/A) and normal coordinates:
                      1                      2                      3
                        a                      a                      a 
 Frequencies --    44.6489                55.9879                99.1593
 Red. masses --     6.2278                 8.4307                 8.9185
 Frc consts  --     0.0000                 0.0000                 0.0000
 IR Inten    --     0.0005                 0.0069                 0.0748
 Raman Activ --     0.0000                 0.0000                 0.0000
 Depolar     --     0.0000                 0.0000                 0.0000
 Atom AN      X      Y      Z        X      Y      Z        X      Y      Z
   1   6    -0.01  -0.17  -0.24     0.02  -0.26  -0.28    -0.08  -0.31   0.27
   2   6    -0.01   0.21   0.27     0.03  -0.10  -0.10     0.15   0.01   0.05
   3   6    -0.00  -0.07  -0.07     0.03   0.20   0.26    -0.05   0.13  -0.24
   4   6    -0.01   0.16   0.24     0.04   0.19   0.23     0.02   0.21  -0.32
   5   6    -0.00  -0.01   0.06     0.02   0.22   0.25     0.09   0.24  -0.14
   6   6     0.00  -0.11  -0.04     0.05   0.02  -0.01    -0.06   0.02   0.03
   7   6     0.02  -0.02  -0.36    -0.26  -0.04  -0.02    -0.27  -0.03   0.06
   8   6     0.00   0.01   0.16     0.08  -0.19  -0.29     0.20  -0.20   0.22
   9   1     0.02  -0.26  -0.06     0.07  -0.03  -0.09    -0.10  -0.14   0.08
  10   1    -0.00   0.02   0.01     0.01  -0.14  -0.16     0.04  -0.12   0.16
  11   1    -0.02   0.01  -0.27    -0.07  -0.09  -0.04    -0.06  -0.08   0.04
  12   1     0.02   0.01   0.27     0.08  -0.01  -0.07     0.08  -0.01   0.05
  13   1    -0.03   0.26   0.07    -0.06  -0.08  -0.02     0.11   0.04   0.01
  14   1    -0.00   0.02  -0.17    -0.03   0.03   0.15    -0.03   0.04  -0.09
  15   1    -0.00  -0.18  -0.01     0.05   0.14   0.07    -0.06   0.01  -0.07
  16   1     0.01   0.02   0.18     0.01   0.06   0.05     0.02   0.07  -0.12
  17   1    -0.02   0.16   0.06     0.01   0.04   0.07    -0.01   0.03  -0.09
  18   1    -0.04  -0.03   0.02    -0.03   0.12   0.06     0.06   0.10  -0.04
  19   1     0.03   0.00  -0.01     0.04   0.06   0.13     0.04   0.06  -0.01
  20   1    -0.00  -0.10  -0.01     0.09   0.02  -0.00    -0.06   0.00   0.01
  21   1    -0.01  -0.04  -0.10    -0.05  -0.04  -0.10    -0.09  -0.05   0.02
  22   1    -0.01  -0.03  -0.17    -0.05   0.02   0.08    -0.11   0.02   0.02
  23   1     0.04   0.07  -0.11    -0.19  -0.03  -0.00    -0.08  -0.01   0.02
  24   1     0.00  -0.03   0.01     0.03  -0.09  -0.13     0.01  -0.10   0.13
  25   1    -0.01   0.09   0.04    -0.04  -0.08  -0.09     0.12  -0.07   0.07
  26   1     0.01  -0.02   0.13     0.08  -0.04  -0.10     0.09  -0.05   0.04
                      4                      5                      6
                        a                      a                      a 
 Frequencies --   118.6622               125.2278               204.4207
 Red. masses --     5.8224                 7.4424                 1.9583
 Frc consts  --     0.0000                 0.0000                 0.0000
 IR Inten    --     0.0030                 0.0041                 0.0244
 Raman Activ --     0.0000                 0.0000                 0.0000
 Depolar     --     0.0000                 0.0000                 0.0000
 Atom AN      X      Y      Z        X      Y      Z        X      Y      Z
   1   6     0.05   0.02  -0.14    -0.04  -0.19  -0.16     0.05   0.03  -0.04
   2   6    -0.01   0.16   0.22     0.00   0.14   0.16    -0.01  -0.02   0.04
   3   6     0.03  -0.08   0.03    -0.02   0.36   0.38     0.01  -0.03   0.07
   4   6     0.01  -0.38  -0.32    -0.02  -0.04  -0.16     0.03   0.03   0.07
   5   6    -0.01   0.12   0.21    -0.01  -0.18  -0.30    -0.03  -0.04  -0.13
   6   6     0.03   0.06   0.06    -0.05  -0.04  -0.08    -0.04   0.00  -0.05
   7   6    -0.07   0.05   0.05     0.14  -0.04   0.05    -0.05   0.01  -0.12
   8   6    -0.02   0.03  -0.10    -0.02   0.03   0.10     0.04   0.01   0.16
   9   1     0.01  -0.18  -0.03     0.05  -0.09  -0.05     0.06   0.06  -0.02
  10   1    -0.00   0.11   0.05    -0.00  -0.10  -0.08    -0.00  -0.01  -0.07
  11   1     0.05   0.06  -0.22    -0.10  -0.05  -0.08    -0.00  -0.00   0.03
  12   1    -0.01   0.01   0.18     0.09   0.04   0.05    -0.01  -0.00   0.01
  13   1    -0.03   0.17   0.06    -0.07   0.05   0.05    -0.02  -0.01   0.01
  14   1     0.09  -0.03   0.04     0.03   0.06   0.27    -0.00  -0.01   0.01
  15   1    -0.06   0.01   0.01    -0.05   0.27   0.11     0.00  -0.01   0.02
  16   1     0.02  -0.05  -0.30    -0.09   0.01  -0.12     0.01  -0.00   0.06
  17   1    -0.01  -0.32  -0.08     0.08  -0.10  -0.04     0.03   0.06   0.02
  18   1     0.04   0.20   0.04     0.01  -0.13  -0.08    -0.02  -0.06  -0.03
  19   1    -0.05   0.00   0.23    -0.00  -0.04  -0.16    -0.01  -0.00  -0.08
  20   1     0.05   0.02   0.02    -0.07   0.00  -0.03    -0.04  -0.01  -0.02
  21   1     0.03   0.04  -0.11    -0.01  -0.01   0.15     0.12   0.10  -0.33
  22   1     0.05   0.01   0.13    -0.02  -0.01  -0.09     0.17  -0.04   0.22
  23   1    -0.17  -0.01   0.02     0.19  -0.02   0.01    -0.34  -0.04  -0.02
  24   1     0.00   0.03  -0.03    -0.02   0.03   0.08    -0.06   0.24   0.40
  25   1    -0.02  -0.03  -0.03     0.05   0.01   0.03     0.32  -0.29   0.08
  26   1    -0.01   0.02  -0.07    -0.04   0.01   0.02    -0.20   0.06  -0.29
                      7                      8                      9
                        a                      a                      a 
 Frequencies --   230.7110               234.3745               239.8482
 Red. masses --     2.4569                 2.5381                 8.0166
 Frc consts  --     0.0000                 0.0000                 0.0000
 IR Inten    --     0.0006                 0.0030                 0.0256
 Raman Activ --     0.0000                 0.0000                 0.0000
 Depolar     --     0.0000                 0.0000                 0.0000
 Atom AN      X      Y      Z        X      Y      Z        X      Y      Z
   1   6    -0.05  -0.08   0.03     0.06   0.02  -0.06     0.33   0.13  -0.11
   2   6     0.06   0.16   0.05    -0.02   0.08   0.23     0.07  -0.20   0.12
   3   6     0.03   0.09  -0.10    -0.01  -0.17  -0.05     0.07  -0.20   0.18
   4   6    -0.02   0.01  -0.07     0.02  -0.08  -0.05     0.14  -0.05   0.01
   5   6     0.04  -0.12  -0.06    -0.02   0.09   0.03    -0.07   0.04  -0.30
   6   6     0.01  -0.08   0.03    -0.02   0.06  -0.01    -0.16   0.15  -0.09
   7   6     0.05  -0.08   0.06    -0.07   0.06  -0.02    -0.40   0.08   0.03
   8   6    -0.11   0.10   0.06     0.06  -0.05  -0.03     0.01   0.04   0.14
   9   1     0.10   0.17  -0.01     0.29   0.36  -0.05     0.14   0.01  -0.03
  10   1     0.01  -0.22  -0.18    -0.01  -0.26  -0.41     0.02   0.14  -0.05
  11   1    -0.18  -0.09   0.20    -0.21  -0.10   0.32     0.19   0.05  -0.07
  12   1     0.04   0.03   0.06    -0.02  -0.00   0.16    -0.01  -0.05   0.02
  13   1     0.03   0.09   0.01    -0.02   0.12   0.06    -0.01  -0.07   0.04
  14   1     0.03   0.04  -0.06     0.02  -0.02  -0.11     0.00  -0.06   0.06
  15   1    -0.01  -0.01  -0.03    -0.04  -0.14  -0.01     0.00  -0.04   0.05
  16   1    -0.02  -0.00  -0.01     0.03  -0.02  -0.04     0.06  -0.02   0.03
  17   1    -0.01   0.02  -0.02    -0.00  -0.05  -0.01     0.10   0.02  -0.00
  18   1     0.03  -0.07  -0.01    -0.00   0.07   0.00    -0.03  -0.07  -0.07
  19   1     0.02  -0.03  -0.06    -0.02   0.02   0.06    -0.05   0.02  -0.16
  20   1     0.00  -0.02   0.01    -0.00   0.02  -0.00    -0.10   0.06  -0.03
  21   1     0.16   0.08  -0.28    -0.11  -0.05   0.17    -0.12  -0.02  -0.01
  22   1     0.21  -0.06   0.31    -0.14   0.04  -0.17    -0.14   0.07   0.05
  23   1    -0.32  -0.10   0.04     0.18   0.06  -0.01    -0.15  -0.01   0.01
  24   1     0.02  -0.11  -0.22    -0.01   0.02   0.07    -0.01  -0.14  -0.06
  25   1    -0.22   0.28  -0.00     0.08  -0.11  -0.00    -0.06   0.18   0.03
  26   1     0.07  -0.03   0.28    -0.00   0.01  -0.11     0.11  -0.02   0.21
                     10                     11                     12
                        a                      a                      a 
 Frequencies --   287.4937               372.7437               409.4806
 Red. masses --     8.7250                 8.3632                 7.9339
 Frc consts  --     0.0000                 0.0000                 0.0000
 IR Inten    --     0.0040                 0.1548                 0.2695
 Raman Activ --     0.0000                 0.0000                 0.0000
 Depolar     --     0.0000                 0.0000                 0.0000
 Atom AN      X      Y      Z        X      Y      Z        X      Y      Z
   1   6     0.29  -0.08   0.06     0.28   0.06  -0.05     0.17  -0.04   0.02
   2   6     0.38   0.08  -0.07     0.02  -0.23   0.17     0.18   0.05  -0.03
   3   6     0.23   0.16  -0.14    -0.21   0.01   0.01     0.06   0.10  -0.07
   4   6    -0.00  -0.02   0.03    -0.06   0.30  -0.15    -0.16  -0.12   0.06
   5   6    -0.05  -0.08   0.10    -0.03   0.29  -0.02    -0.24  -0.09   0.02
   6   6    -0.14  -0.13   0.09    -0.17  -0.18  -0.05    -0.26   0.17   0.19
   7   6    -0.22  -0.11  -0.01     0.31  -0.16   0.06     0.16   0.37  -0.09
   8   6    -0.45   0.16  -0.04    -0.22  -0.13   0.00     0.01  -0.37  -0.02
   9   1     0.06  -0.02   0.02     0.16   0.02  -0.02     0.04  -0.01   0.01
  10   1     0.11  -0.05   0.04    -0.01   0.11  -0.08     0.06  -0.02   0.01
  11   1     0.06  -0.03   0.02     0.16   0.02  -0.02     0.04  -0.01   0.01
  12   1     0.14   0.02  -0.02     0.00  -0.06   0.04     0.07   0.01  -0.01
  13   1     0.14   0.03  -0.02     0.00  -0.06   0.05     0.07   0.01  -0.01
  14   1     0.08   0.05  -0.04    -0.13   0.00  -0.00     0.04   0.02  -0.01
  15   1     0.08   0.04  -0.04    -0.11  -0.01   0.01     0.03   0.04  -0.02
  16   1    -0.03  -0.01   0.01     0.03   0.09  -0.05    -0.06  -0.03   0.02
  17   1    -0.03  -0.00   0.01    -0.01   0.07  -0.04    -0.07  -0.03   0.02
  18   1    -0.01  -0.01   0.03    -0.02   0.20  -0.02    -0.05  -0.10   0.02
  19   1    -0.01  -0.03   0.04     0.08   0.07   0.12    -0.12  -0.01  -0.07
  20   1    -0.02  -0.05   0.03    -0.07  -0.07  -0.01    -0.09   0.06   0.05
  21   1    -0.10  -0.09   0.06     0.13   0.11   0.04     0.10   0.20  -0.09
  22   1    -0.13  -0.01  -0.08     0.18  -0.13   0.04     0.15  -0.04  -0.07
  23   1     0.01   0.00  -0.01     0.12  -0.10   0.02     0.03   0.21  -0.04
  24   1    -0.09   0.21   0.02    -0.05  -0.02  -0.01    -0.04  -0.26  -0.04
  25   1    -0.12  -0.03  -0.01    -0.07  -0.03   0.00    -0.06  -0.19  -0.01
  26   1    -0.28   0.05  -0.10    -0.08  -0.04   0.01     0.21  -0.06  -0.06
                     13                     14                     15
                        a                      a                      a 
 Frequencies --   457.8841               492.6768               770.4920
 Red. masses --     7.6213                 8.8174                 1.7327
 Frc consts  --     0.0000                 0.0000                 0.0000
 IR Inten    --     0.7512                 0.7842                10.8170
 Raman Activ --     0.0000                 0.0000                 0.0000
 Depolar     --     0.0000                 0.0000                 0.0000
 Atom AN      X      Y      Z        X      Y      Z        X      Y      Z
   1   6     0.10   0.02  -0.02    -0.26   0.03  -0.02    -0.00  -0.01  -0.01
   2   6    -0.08  -0.17   0.14    -0.12   0.09  -0.06    -0.00  -0.07  -0.08
   3   6    -0.24   0.05  -0.03     0.22  -0.18   0.15    -0.01  -0.09  -0.13
   4   6    -0.09   0.16  -0.21     0.42   0.04  -0.04     0.00  -0.09  -0.11
   5   6     0.27  -0.21   0.03     0.20   0.20  -0.17     0.02  -0.07  -0.04
   6   6     0.22  -0.00   0.44    -0.16  -0.05   0.25     0.01  -0.00   0.02
   7   6    -0.10   0.11  -0.09     0.01   0.07  -0.03    -0.01   0.04   0.02
   8   6    -0.02   0.03  -0.07    -0.31  -0.18   0.01     0.00   0.00   0.00
   9   1     0.09   0.01  -0.01    -0.12   0.00  -0.00    -0.07   0.09   0.00
  10   1    -0.04   0.08  -0.06    -0.02  -0.04   0.04    -0.00   0.02   0.02
  11   1     0.09   0.01  -0.01    -0.12   0.00   0.00     0.08  -0.02   0.08
  12   1    -0.02  -0.05   0.04    -0.07   0.02  -0.01    -0.03  -0.10   0.29
  13   1    -0.02  -0.04   0.04    -0.07   0.02  -0.02     0.04   0.30  -0.03
  14   1    -0.12   0.01   0.01     0.08  -0.05   0.04     0.03  -0.14   0.39
  15   1    -0.14   0.03  -0.01     0.08  -0.04   0.04    -0.03   0.42  -0.04
  16   1    -0.06   0.04  -0.05     0.19   0.01  -0.00     0.04  -0.12   0.35
  17   1    -0.05   0.04  -0.06     0.19   0.02  -0.02    -0.04   0.37  -0.05
  18   1     0.21  -0.22   0.02     0.12   0.02  -0.04     0.05   0.19  -0.04
  19   1     0.07  -0.03  -0.17     0.07   0.06  -0.08    -0.05  -0.06   0.19
  20   1     0.10  -0.00   0.12    -0.09  -0.02   0.07    -0.02   0.01   0.00
  21   1    -0.04  -0.12  -0.13     0.03   0.06  -0.04    -0.01  -0.01  -0.01
  22   1    -0.07   0.03  -0.10     0.05  -0.08  -0.07    -0.01   0.01  -0.01
  23   1    -0.09   0.20  -0.04     0.02   0.12  -0.02    -0.01   0.03   0.00
  24   1     0.06   0.09  -0.11    -0.04  -0.01  -0.07     0.00  -0.00  -0.01
  25   1    -0.13  -0.09  -0.02    -0.20  -0.12  -0.00    -0.01  -0.01  -0.00
  26   1    -0.02   0.03  -0.11    -0.08  -0.03  -0.06     0.01   0.00  -0.00
                     16                     17                     18
                        a                      a                      a 
 Frequencies --   794.8528               862.5750               882.8669
 Red. masses --     2.4277                 4.9392                 6.2395
 Frc consts  --     0.0000                 0.0000                 0.0000
 IR Inten    --     0.3705                 1.8447                 1.0233
 Raman Activ --     0.0000                 0.0000                 0.0000
 Depolar     --     0.0000                 0.0000                 0.0000
 Atom AN      X      Y      Z        X      Y      Z        X      Y      Z
   1   6    -0.00   0.03   0.03     0.04   0.06   0.07    -0.07   0.04   0.06
   2   6    -0.00   0.12   0.17     0.03   0.13   0.07    -0.03  -0.03   0.10
   3   6    -0.01   0.05   0.04    -0.00  -0.17  -0.11     0.03  -0.03  -0.16
   4   6     0.00  -0.11  -0.14    -0.06  -0.05  -0.03     0.10   0.05  -0.02
   5   6     0.05  -0.16  -0.11    -0.19   0.29   0.05     0.24  -0.11   0.27
   6   6     0.02  -0.01   0.02    -0.03   0.05   0.15    -0.01  -0.02  -0.27
   7   6    -0.01   0.10   0.04     0.01  -0.30  -0.05    -0.07   0.31  -0.04
   8   6    -0.01  -0.01   0.01     0.15   0.12  -0.02    -0.24  -0.18  -0.02
   9   1     0.17  -0.16   0.00     0.18  -0.17   0.01     0.16  -0.10   0.01
  10   1    -0.01  -0.05  -0.07     0.04  -0.10  -0.06    -0.07   0.01  -0.09
  11   1    -0.16   0.04  -0.15    -0.22   0.05  -0.15    -0.11   0.04  -0.11
  12   1    -0.03   0.14  -0.35    -0.15   0.08  -0.15    -0.12   0.01  -0.05
  13   1     0.02  -0.37   0.05     0.15  -0.15   0.02     0.12  -0.09   0.02
  14   1     0.12   0.05  -0.11     0.10  -0.11   0.22     0.02  -0.05   0.13
  15   1    -0.14  -0.11   0.02    -0.07   0.21  -0.03    -0.03   0.17  -0.05
  16   1    -0.09  -0.11   0.28     0.20  -0.03   0.06     0.11   0.02  -0.03
  17   1     0.08   0.30  -0.06    -0.17   0.07  -0.00    -0.13  -0.01   0.00
  18   1     0.07   0.30  -0.07    -0.03  -0.20   0.05     0.06  -0.19   0.09
  19   1    -0.04  -0.11   0.31    -0.10   0.12  -0.27     0.13   0.00  -0.09
  20   1    -0.04   0.03   0.00     0.02  -0.04   0.04     0.14  -0.05  -0.06
  21   1    -0.01  -0.02  -0.02     0.02  -0.03  -0.01    -0.03   0.19   0.12
  22   1    -0.02   0.04  -0.00     0.05  -0.16  -0.05    -0.01   0.16   0.11
  23   1    -0.03   0.07   0.01     0.04  -0.05  -0.02     0.04  -0.13   0.01
  24   1     0.00  -0.01  -0.01     0.08   0.07  -0.06    -0.16  -0.12   0.15
  25   1    -0.02  -0.01   0.00    -0.03  -0.02  -0.01     0.14   0.09   0.00
  26   1     0.01   0.00  -0.01     0.05   0.05  -0.06    -0.09  -0.09   0.12
                     19                     20                     21
                        a                      a                      a 
 Frequencies --   943.6468               947.2639               959.6268
 Red. masses --     5.9203                 2.7147                 3.2595
 Frc consts  --     0.0000                 0.0000                 0.0000
 IR Inten    --     4.8107                 1.9299                 2.4333
 Raman Activ --     0.0000                 0.0000                 0.0000
 Depolar     --     0.0000                 0.0000                 0.0000
 Atom AN      X      Y      Z        X      Y      Z        X      Y      Z
   1   6     0.35   0.09  -0.07    -0.01  -0.01  -0.00    -0.01   0.08   0.12
   2   6     0.06   0.21  -0.16    -0.00  -0.01   0.01    -0.01  -0.05  -0.05
   3   6    -0.21  -0.28   0.22     0.01   0.02  -0.00    -0.01  -0.05  -0.11
   4   6    -0.13   0.09  -0.06    -0.01  -0.03   0.00    -0.02   0.09   0.20
   5   6     0.03  -0.01   0.00     0.00   0.03  -0.01    -0.04  -0.04  -0.21
   6   6     0.08  -0.04  -0.04     0.07   0.11  -0.02     0.13  -0.05  -0.03
   7   6     0.04   0.13   0.00     0.14   0.03  -0.23     0.14   0.08   0.10
   8   6    -0.06  -0.09   0.01    -0.10   0.08   0.22    -0.02  -0.08   0.08
   9   1    -0.22  -0.04   0.01     0.00   0.01  -0.00     0.22  -0.15   0.02
  10   1     0.42  -0.32   0.24    -0.02   0.02  -0.01    -0.03  -0.04  -0.10
  11   1    -0.22  -0.01   0.04     0.02  -0.00   0.01    -0.18   0.06  -0.14
  12   1    -0.13   0.05  -0.04     0.02  -0.00  -0.00    -0.24  -0.04   0.06
  13   1    -0.12   0.05  -0.04    -0.01  -0.00   0.00     0.27   0.06  -0.03
  14   1    -0.11  -0.08   0.06     0.02   0.01  -0.01    -0.22  -0.05   0.10
  15   1    -0.12  -0.07   0.06    -0.00  -0.01  -0.00     0.24   0.11  -0.04
  16   1    -0.02   0.02  -0.02    -0.02  -0.01   0.02    -0.09   0.07  -0.16
  17   1    -0.02   0.01  -0.02    -0.01   0.01   0.00     0.06  -0.20   0.06
  18   1     0.03  -0.00  -0.00     0.02  -0.01   0.00    -0.20   0.15  -0.07
  19   1     0.05   0.00  -0.01    -0.03   0.01  -0.02     0.10  -0.03   0.11
  20   1     0.06  -0.03  -0.01    -0.10  -0.30   0.01    -0.14   0.09  -0.02
  21   1    -0.01  -0.02   0.01    -0.06  -0.09   0.13    -0.00  -0.24  -0.11
  22   1    -0.04   0.12   0.05    -0.11   0.35   0.22    -0.10   0.15  -0.01
  23   1    -0.02  -0.02   0.01    -0.00  -0.44  -0.01    -0.11   0.17   0.01
  24   1    -0.02  -0.00   0.02     0.01  -0.10  -0.12     0.05   0.06  -0.06
  25   1     0.01   0.02   0.00    -0.29  -0.32   0.06    -0.11  -0.05   0.02
  26   1    -0.06  -0.04   0.04     0.24   0.13  -0.22    -0.06  -0.02  -0.01
                     22                     23                     24
                        a                      a                      a 
 Frequencies --   980.6629               992.7443              1041.9825
 Red. masses --     4.6727                 4.8857                 3.1631
 Frc consts  --     0.0000                 0.0000                 0.0000
 IR Inten    --     0.7918                 0.6308                 0.7749
 Raman Activ --     0.0000                 0.0000                 0.0000
 Depolar     --     0.0000                 0.0000                 0.0000
 Atom AN      X      Y      Z        X      Y      Z        X      Y      Z
   1   6     0.00   0.04  -0.01    -0.05  -0.07  -0.04    -0.02  -0.00  -0.09
   2   6     0.01  -0.03  -0.00     0.01   0.04   0.06     0.02   0.02   0.12
   3   6     0.04  -0.04   0.02     0.03   0.01  -0.01     0.06  -0.08  -0.07
   4   6     0.08   0.14  -0.07    -0.04  -0.09  -0.03     0.04   0.12   0.01
   5   6     0.03  -0.15   0.11    -0.16   0.23  -0.04     0.08  -0.18   0.05
   6   6    -0.15   0.16   0.04     0.25   0.06  -0.03    -0.11  -0.14  -0.13
   7   6     0.13  -0.26   0.01     0.28   0.00   0.07    -0.03   0.09   0.11
   8   6    -0.22   0.26  -0.11    -0.22  -0.22   0.02     0.11   0.14   0.05
   9   1    -0.01  -0.02   0.00    -0.05   0.08  -0.01    -0.12   0.06  -0.02
  10   1     0.04  -0.04   0.01    -0.07   0.08  -0.00     0.03  -0.00   0.05
  11   1    -0.07   0.01  -0.02     0.14  -0.03   0.06     0.04  -0.02   0.05
  12   1    -0.07  -0.01   0.02     0.17   0.03  -0.05     0.10   0.03  -0.06
  13   1     0.02   0.01  -0.00    -0.10  -0.06   0.02    -0.15  -0.09   0.04
  14   1    -0.06  -0.01   0.01     0.21   0.01  -0.01     0.21  -0.04   0.06
  15   1     0.03  -0.00   0.00    -0.13  -0.00   0.00    -0.23   0.07  -0.01
  16   1    -0.00   0.04  -0.04     0.13  -0.04   0.06     0.25   0.05  -0.09
  17   1     0.06   0.00  -0.02    -0.12   0.06  -0.01    -0.30  -0.06   0.02
  18   1     0.06   0.01   0.02    -0.10  -0.06   0.00    -0.35  -0.01   0.01
  19   1     0.05  -0.04   0.06    -0.05   0.08  -0.13     0.35  -0.04   0.07
  20   1     0.03   0.15   0.01     0.12   0.13  -0.01    -0.31   0.03  -0.04
  21   1     0.01  -0.25  -0.11    -0.01  -0.42  -0.13     0.00  -0.02  -0.05
  22   1    -0.04  -0.04  -0.07    -0.15   0.25   0.01    -0.01  -0.02  -0.04
  23   1    -0.06   0.07  -0.01    -0.14   0.12   0.01    -0.04   0.17   0.01
  24   1    -0.31  -0.39   0.21    -0.09  -0.05   0.09     0.07   0.02  -0.09
  25   1     0.22  -0.03  -0.01     0.05   0.05   0.01    -0.11  -0.10   0.01
  26   1     0.39   0.14  -0.06    -0.15  -0.10   0.12     0.11   0.08  -0.11
                     25                     26                     27
                        a                      a                      a 
 Frequencies --  1061.6756              1100.1819              1106.4803
 Red. masses --     9.9580                 7.8623                 9.0809
 Frc consts  --     0.0000                 0.0000                 0.0000
 IR Inten    --     0.7084                 1.1676                 0.4767
 Raman Activ --     0.0000                 0.0000                 0.0000
 Depolar     --     0.0000                 0.0000                 0.0000
 Atom AN      X      Y      Z        X      Y      Z        X      Y      Z
   1   6     0.26  -0.21   0.14     0.01  -0.15   0.12    -0.27   0.22  -0.17
   2   6    -0.28   0.23  -0.15    -0.11   0.13  -0.10     0.45  -0.14   0.10
   3   6    -0.36   0.13  -0.12     0.28  -0.24   0.18    -0.13  -0.05   0.04
   4   6     0.07  -0.32   0.29    -0.52   0.10  -0.05    -0.25  -0.21   0.19
   5   6     0.33   0.14  -0.11     0.14   0.12  -0.13     0.33   0.18  -0.14
   6   6     0.00   0.08  -0.06    -0.05  -0.14   0.05     0.04   0.09  -0.06
   7   6    -0.04  -0.07   0.01    -0.00   0.08   0.01    -0.04  -0.06  -0.00
   8   6    -0.10   0.03   0.03     0.01   0.08  -0.08    -0.09  -0.00   0.03
   9   1     0.15  -0.03   0.03     0.14  -0.01   0.02    -0.16   0.06  -0.04
  10   1     0.01   0.02  -0.00    -0.11   0.08  -0.06    -0.02   0.00  -0.00
  11   1     0.17  -0.05   0.04     0.14  -0.02   0.00    -0.15   0.05  -0.04
  12   1    -0.01   0.07  -0.07    -0.02   0.03  -0.02     0.21  -0.03   0.02
  13   1    -0.05   0.05  -0.04    -0.02   0.03  -0.02     0.20  -0.04   0.02
  14   1     0.00   0.03  -0.02     0.25  -0.06   0.05    -0.08  -0.02   0.03
  15   1    -0.07   0.06  -0.03     0.25  -0.06   0.04    -0.09  -0.03   0.02
  16   1     0.09  -0.08   0.06    -0.15   0.02  -0.01    -0.11  -0.06   0.06
  17   1    -0.01  -0.10   0.08    -0.17   0.02  -0.01    -0.14  -0.07   0.06
  18   1     0.05   0.03  -0.03     0.17   0.06  -0.04     0.12   0.05  -0.04
  19   1     0.12   0.04  -0.02     0.23   0.04  -0.03     0.10   0.05  -0.04
  20   1    -0.08   0.08  -0.02    -0.00  -0.08   0.01    -0.05   0.08  -0.02
  21   1     0.01   0.02  -0.02    -0.00   0.02   0.01     0.01   0.04  -0.01
  22   1     0.03  -0.09  -0.04    -0.01   0.04   0.02     0.03  -0.08  -0.03
  23   1     0.01   0.03  -0.00    -0.01   0.01   0.01     0.02   0.01  -0.01
  24   1    -0.06  -0.07   0.02    -0.04  -0.04   0.03    -0.04  -0.05   0.02
  25   1    -0.02  -0.05   0.01     0.09   0.03  -0.02    -0.02  -0.03   0.01
  26   1     0.07   0.03  -0.03     0.06   0.02  -0.00     0.03   0.01  -0.01
                     28                     29                     30
                        a                      a                      a 
 Frequencies --  1123.3032              1160.5115              1187.9169
 Red. masses --     7.1631                 8.0910                 6.2327
 Frc consts  --     0.0000                 0.0000                 0.0000
 IR Inten    --     1.9384                 3.7357                 6.6204
 Raman Activ --     0.0000                 0.0000                 0.0000
 Depolar     --     0.0000                 0.0000                 0.0000
 Atom AN      X      Y      Z        X      Y      Z        X      Y      Z
   1   6    -0.15  -0.07   0.06    -0.04  -0.09   0.07     0.01   0.02  -0.02
   2   6     0.26   0.27  -0.21     0.04   0.16  -0.13    -0.03  -0.04   0.03
   3   6    -0.37  -0.22   0.17     0.03  -0.21   0.16     0.03   0.04  -0.04
   4   6     0.11   0.05  -0.03    -0.05   0.20  -0.15    -0.04  -0.01  -0.00
   5   6    -0.16  -0.08   0.02     0.06  -0.18   0.13    -0.18   0.08  -0.14
   6   6    -0.04  -0.19   0.08     0.20   0.41  -0.21     0.45  -0.21  -0.10
   7   6     0.01   0.12   0.02    -0.09  -0.20  -0.05    -0.21   0.09   0.17
   8   6     0.06   0.08  -0.08    -0.10  -0.15   0.24    -0.20   0.11   0.14
   9   1     0.13   0.03  -0.00     0.10   0.00   0.01    -0.02  -0.00  -0.00
  10   1    -0.18   0.14  -0.10    -0.10   0.07  -0.05     0.02  -0.02   0.01
  11   1     0.13   0.00  -0.03     0.10  -0.01  -0.01    -0.02   0.00   0.00
  12   1     0.28   0.08  -0.07     0.05   0.04  -0.03    -0.02  -0.01   0.01
  13   1     0.28   0.07  -0.06     0.05   0.04  -0.03    -0.01  -0.01   0.01
  14   1    -0.08  -0.06   0.05    -0.01  -0.05   0.04     0.05   0.01  -0.01
  15   1    -0.11  -0.05   0.04    -0.00  -0.05   0.04     0.02   0.01  -0.01
  16   1     0.22   0.02  -0.03    -0.04   0.05  -0.04     0.02  -0.00  -0.01
  17   1     0.20  -0.00  -0.02    -0.06   0.03  -0.03     0.07   0.01  -0.01
  18   1    -0.03  -0.01   0.00    -0.10  -0.01   0.03    -0.19   0.03  -0.04
  19   1     0.06  -0.02   0.02    -0.09  -0.05   0.05     0.00   0.02  -0.03
  20   1     0.06  -0.14   0.03     0.02   0.34  -0.07     0.41  -0.19  -0.01
  21   1    -0.02  -0.01   0.02     0.03   0.09  -0.02     0.03   0.20  -0.01
  22   1    -0.02   0.07   0.03     0.07  -0.19  -0.06     0.08  -0.19  -0.06
  23   1    -0.02   0.01   0.01     0.07  -0.03  -0.02     0.07   0.19   0.02
  24   1    -0.01  -0.02   0.02     0.04   0.03  -0.06    -0.11  -0.18   0.02
  25   1     0.08   0.03  -0.02    -0.23  -0.13   0.05    -0.06  -0.19   0.04
  26   1     0.06   0.02  -0.00    -0.09  -0.02  -0.03     0.20   0.09  -0.09
                     31                     32                     33
                        a                      a                      a 
 Frequencies --  1196.0554              1221.2378              1252.7399
 Red. masses --     6.9802                 5.2205                 3.4673
 Frc consts  --     0.0000                 0.0000                 0.0000
 IR Inten    --     3.0633                 0.9503                 0.1979
 Raman Activ --     0.0000                 0.0000                 0.0000
 Depolar     --     0.0000                 0.0000                 0.0000
 Atom AN      X      Y      Z        X      Y      Z        X      Y      Z
   1   6    -0.00   0.08   0.12    -0.01  -0.18  -0.21     0.04   0.10  -0.07
   2   6     0.01  -0.12  -0.20     0.01   0.24   0.27    -0.12  -0.13   0.10
   3   6    -0.00   0.13   0.22     0.00  -0.15  -0.16    -0.18   0.07  -0.06
   4   6     0.02  -0.17  -0.23     0.01   0.04   0.03    -0.21   0.00   0.01
   5   6     0.08   0.14   0.29     0.04   0.05   0.14    -0.13  -0.09   0.08
   6   6    -0.11  -0.12  -0.35    -0.10  -0.06  -0.24    -0.10   0.08  -0.12
   7   6     0.06   0.05   0.21     0.05   0.02   0.15     0.02  -0.02  -0.01
   8   6     0.05   0.05   0.09     0.04   0.03   0.07     0.04  -0.03   0.12
   9   1     0.12  -0.09   0.02    -0.19   0.17  -0.04    -0.07  -0.02  -0.01
  10   1    -0.01  -0.03  -0.06    -0.01   0.08   0.09     0.10  -0.07   0.05
  11   1    -0.10   0.04  -0.08     0.21  -0.09   0.14    -0.08   0.01   0.02
  12   1    -0.01  -0.07   0.11    -0.15   0.12  -0.17     0.15  -0.03   0.01
  13   1     0.02   0.14  -0.05     0.14  -0.19   0.07     0.14  -0.01   0.02
  14   1    -0.07   0.08  -0.12    -0.17  -0.08   0.12     0.34   0.02  -0.02
  15   1     0.02  -0.15   0.06     0.14   0.12  -0.05     0.30   0.02  -0.03
  16   1    -0.06  -0.10   0.16    -0.24   0.02  -0.01     0.35   0.01  -0.02
  17   1    -0.00   0.17  -0.07     0.20  -0.03  -0.00     0.37   0.01  -0.02
  18   1     0.05  -0.19   0.09     0.21  -0.07   0.04     0.25   0.01   0.01
  19   1    -0.01   0.07  -0.15    -0.15   0.02  -0.05     0.28   0.00   0.00
  20   1    -0.15  -0.11  -0.09    -0.03  -0.12  -0.06     0.14   0.18  -0.04
  21   1     0.02  -0.11  -0.10     0.03  -0.07  -0.08    -0.01  -0.04  -0.01
  22   1    -0.04  -0.01  -0.08    -0.04  -0.01  -0.06    -0.00  -0.00  -0.01
  23   1    -0.08   0.24   0.02    -0.06   0.16   0.02    -0.01  -0.01  -0.00
  24   1     0.05   0.01  -0.07     0.04   0.01  -0.06     0.07   0.06  -0.06
  25   1    -0.10  -0.08   0.02    -0.07  -0.05   0.01    -0.10  -0.04   0.02
  26   1     0.04   0.04  -0.08     0.01   0.02  -0.06    -0.03   0.01  -0.04
                     34                     35                     36
                        a                      a                      a 
 Frequencies --  1265.1421              1283.9676              1292.5231
 Red. masses --     3.2818                 1.8260                 2.3831
 Frc consts  --     0.0000                 0.0000                 0.0000
 IR Inten    --     0.7520                 0.4969                 0.0691
 Raman Activ --     0.0000                 0.0000                 0.0000
 Depolar     --     0.0000                 0.0000                 0.0000
 Atom AN      X      Y      Z        X      Y      Z        X      Y      Z
   1   6    -0.00   0.11   0.16    -0.01  -0.01   0.02    -0.00   0.06   0.08
   2   6     0.01  -0.03  -0.06     0.03  -0.08  -0.13     0.01   0.05   0.06
   3   6     0.02  -0.13  -0.16     0.04  -0.05  -0.06     0.00  -0.13  -0.17
   4   6     0.01   0.17   0.20     0.02   0.08   0.13    -0.00  -0.09  -0.10
   5   6    -0.01  -0.07  -0.06     0.00   0.05   0.04     0.02   0.12   0.11
   6   6    -0.07   0.01  -0.16    -0.10   0.00  -0.01    -0.01  -0.07   0.08
   7   6     0.03   0.01   0.11     0.03  -0.02  -0.00     0.00  -0.01  -0.08
   8   6     0.02   0.00   0.04     0.02  -0.01   0.03    -0.00   0.01   0.00
   9   1     0.13  -0.10   0.03     0.01  -0.01   0.00     0.06  -0.05   0.02
  10   1    -0.01  -0.03  -0.06    -0.02  -0.01  -0.04    -0.00  -0.01  -0.02
  11   1    -0.12   0.06  -0.09     0.01   0.00  -0.02    -0.06   0.03  -0.04
  12   1     0.39  -0.01   0.01    -0.20  -0.05   0.07     0.36   0.03  -0.05
  13   1    -0.42   0.02  -0.00     0.12   0.08  -0.04    -0.38  -0.05   0.03
  14   1     0.05  -0.07   0.09     0.44  -0.01   0.01    -0.19  -0.08   0.09
  15   1    -0.11   0.10  -0.04    -0.57   0.02   0.01     0.17   0.10  -0.06
  16   1     0.00   0.08  -0.12    -0.41   0.04  -0.04    -0.34  -0.05   0.08
  17   1    -0.04  -0.13   0.06     0.35  -0.08   0.02     0.33   0.06  -0.05
  18   1     0.39   0.07  -0.03    -0.03  -0.03   0.02    -0.31  -0.10   0.05
  19   1    -0.31  -0.05   0.05     0.11   0.03  -0.02     0.28   0.06  -0.07
  20   1     0.06  -0.17  -0.03     0.12   0.04  -0.00     0.00   0.20   0.01
  21   1     0.02  -0.05  -0.06     0.01   0.01  -0.01    -0.00   0.05   0.04
  22   1    -0.02  -0.02  -0.05    -0.02   0.02  -0.01    -0.00   0.04   0.04
  23   1    -0.03   0.10   0.01    -0.02  -0.00  -0.00     0.01  -0.06  -0.01
  24   1     0.02  -0.00  -0.04     0.03   0.03  -0.02     0.00   0.02   0.01
  25   1    -0.04  -0.03   0.01    -0.02  -0.00   0.01     0.01   0.00   0.00
  26   1    -0.01   0.01  -0.03     0.00   0.01  -0.02     0.03   0.01   0.00
                     37                     38                     39
                        a                      a                      a 
 Frequencies --  1302.2360              1334.6619              1343.0816
 Red. masses --     3.4333                 4.3725                 4.5705
 Frc consts  --     0.0000                 0.0000                 0.0000
 IR Inten    --     0.3353                 4.0444                 7.0301
 Raman Activ --     0.0000                 0.0000                 0.0000
 Depolar     --     0.0000                 0.0000                 0.0000
 Atom AN      X      Y      Z        X      Y      Z        X      Y      Z
   1   6    -0.03  -0.08   0.05     0.03   0.07  -0.05    -0.01  -0.03   0.02
   2   6     0.19   0.07  -0.03    -0.25  -0.02   0.02     0.12  -0.01  -0.02
   3   6     0.16   0.07   0.00    -0.06  -0.05   0.06     0.01   0.03  -0.03
   4   6     0.00  -0.12   0.05     0.22   0.05  -0.02    -0.10   0.03   0.04
   5   6    -0.16  -0.01  -0.08     0.08   0.05  -0.06    -0.07   0.06   0.09
   6   6    -0.23  -0.08  -0.05    -0.20  -0.31   0.01     0.27  -0.42  -0.00
   7   6     0.04   0.02  -0.03     0.05   0.02  -0.07    -0.05   0.06  -0.11
   8   6     0.05   0.00   0.15     0.02   0.06   0.10    -0.06   0.09   0.00
   9   1     0.02   0.04   0.01     0.00  -0.04  -0.01    -0.00   0.02   0.00
  10   1    -0.09   0.07  -0.04     0.09  -0.07   0.05    -0.04   0.03  -0.03
  11   1     0.03  -0.01  -0.02     0.00  -0.00   0.04    -0.00   0.00  -0.02
  12   1    -0.26   0.01  -0.00     0.28  -0.00  -0.00    -0.16  -0.01   0.01
  13   1    -0.23  -0.01   0.00     0.30   0.00  -0.01    -0.12   0.01   0.00
  14   1    -0.36   0.01  -0.00     0.09   0.00  -0.02     0.04   0.00   0.01
  15   1    -0.17  -0.03   0.01     0.08   0.01   0.01    -0.06  -0.00  -0.00
  16   1     0.13  -0.03   0.01    -0.22   0.01   0.01     0.14   0.02  -0.03
  17   1    -0.12   0.02   0.01    -0.32  -0.02   0.02     0.15  -0.01   0.00
  18   1     0.23   0.04  -0.03    -0.04  -0.01  -0.01     0.21  -0.03   0.02
  19   1     0.30   0.01   0.02    -0.22  -0.01   0.02    -0.25   0.01  -0.05
  20   1     0.44   0.26  -0.02     0.30   0.37  -0.02    -0.40   0.50  -0.05
  21   1    -0.01  -0.04   0.01    -0.00   0.05   0.05    -0.01   0.13   0.08
  22   1    -0.02   0.05   0.01    -0.05   0.12   0.05     0.00   0.08   0.09
  23   1    -0.02  -0.02  -0.00    -0.04   0.01  -0.01     0.03  -0.01  -0.02
  24   1     0.09   0.07  -0.09     0.06   0.02  -0.08    -0.03  -0.08  -0.02
  25   1    -0.08  -0.04   0.03    -0.01  -0.03   0.02     0.05  -0.06   0.01
  26   1     0.04   0.04  -0.08     0.09   0.06  -0.08     0.09   0.03  -0.01
                     40                     41                     42
                        a                      a                      a 
 Frequencies --  1370.8453              1378.5211              1409.7768
 Red. masses --     4.9583                 5.6740                 3.3114
 Frc consts  --     0.0000                 0.0000                 0.0000
 IR Inten    --     0.2370                 0.6049                 3.3998
 Raman Activ --     0.0000                 0.0000                 0.0000
 Depolar     --     0.0000                 0.0000                 0.0000
 Atom AN      X      Y      Z        X      Y      Z        X      Y      Z
   1   6    -0.03  -0.05   0.04     0.04   0.01  -0.01     0.01  -0.00   0.00
   2   6     0.32  -0.02   0.01    -0.22   0.01  -0.01    -0.01   0.00   0.00
   3   6    -0.26   0.02  -0.00     0.35   0.02  -0.02     0.02   0.01   0.00
   4   6    -0.09   0.04  -0.03    -0.38  -0.01   0.02    -0.04  -0.01   0.00
   5   6     0.33  -0.01  -0.03     0.29  -0.00  -0.00     0.01  -0.03   0.01
   6   6    -0.23  -0.05   0.02    -0.13  -0.04   0.01     0.02   0.10  -0.00
   7   6     0.06  -0.01  -0.00     0.03   0.02  -0.01     0.04  -0.32  -0.06
   8   6     0.05   0.02   0.02     0.04   0.03  -0.00    -0.21  -0.19   0.08
   9   1    -0.02   0.05   0.00    -0.01  -0.02  -0.00    -0.01   0.00   0.00
  10   1    -0.08   0.06  -0.04     0.02  -0.01   0.01    -0.01   0.01  -0.01
  11   1    -0.02   0.01  -0.05    -0.01  -0.01   0.02    -0.01   0.00  -0.00
  12   1    -0.30  -0.00  -0.01     0.16   0.00   0.01     0.01   0.00  -0.00
  13   1    -0.29   0.01   0.01     0.17  -0.01  -0.01     0.01   0.00  -0.00
  14   1     0.26   0.01   0.00    -0.29  -0.01   0.02    -0.03   0.00   0.00
  15   1     0.27  -0.01  -0.01    -0.29  -0.01   0.01    -0.02  -0.01   0.00
  16   1     0.11   0.01   0.01     0.33   0.00  -0.02     0.06   0.00  -0.02
  17   1     0.07  -0.02  -0.01     0.31   0.01  -0.02     0.03   0.03  -0.00
  18   1    -0.34  -0.00  -0.00    -0.24   0.00   0.00    -0.01   0.02  -0.00
  19   1    -0.33  -0.03   0.02    -0.26  -0.02  -0.01     0.01  -0.00  -0.01
  20   1     0.25   0.00   0.01     0.10   0.01   0.01    -0.03  -0.11   0.01
  21   1    -0.01  -0.02   0.03    -0.02  -0.05   0.03     0.07   0.33   0.13
  22   1    -0.03   0.05   0.01     0.00   0.01   0.01    -0.17   0.28   0.16
  23   1    -0.05   0.03   0.00    -0.03  -0.00   0.00    -0.06   0.39  -0.05
  24   1     0.02   0.00  -0.01    -0.01  -0.03   0.01     0.15   0.26  -0.15
  25   1    -0.03   0.00   0.00    -0.03  -0.02   0.00     0.26   0.24   0.01
  26   1    -0.01   0.01  -0.03    -0.03   0.00  -0.00     0.29   0.07  -0.15
                     43                     44                     45
                        a                      a                      a 
 Frequencies --  1416.3145              1422.5774              1489.6579
 Red. masses --     3.1836                 3.1020                 1.7996
 Frc consts  --     0.0000                 0.0000                 0.0000
 IR Inten    --     0.7921                 1.7765                 0.3514
 Raman Activ --     0.0000                 0.0000                 0.0000
 Depolar     --     0.0000                 0.0000                 0.0000
 Atom AN      X      Y      Z        X      Y      Z        X      Y      Z
   1   6     0.38  -0.17   0.12    -0.01   0.00  -0.00    -0.00   0.00  -0.00
   2   6    -0.08  -0.01   0.01     0.00  -0.00  -0.00    -0.01  -0.02   0.02
   3   6     0.00  -0.02   0.01    -0.00  -0.01  -0.00     0.00   0.04  -0.03
   4   6     0.03   0.01  -0.01    -0.02   0.02  -0.01     0.02   0.06  -0.05
   5   6    -0.01   0.00  -0.00     0.04   0.02   0.00    -0.01  -0.15   0.14
   6   6     0.00  -0.00  -0.00     0.03  -0.03  -0.01     0.01   0.01   0.00
   7   6    -0.00   0.01   0.00    -0.05   0.28   0.07     0.10   0.03  -0.02
   8   6    -0.00   0.00   0.00    -0.24  -0.17   0.11    -0.06   0.05  -0.01
   9   1    -0.47   0.21   0.03     0.01  -0.00  -0.00     0.00  -0.01   0.00
  10   1    -0.29   0.33  -0.25     0.00  -0.01   0.00     0.00  -0.00  -0.00
  11   1    -0.47   0.03  -0.20     0.01  -0.00   0.00     0.00  -0.00   0.01
  12   1     0.08   0.02  -0.05    -0.00  -0.00   0.00     0.00   0.02  -0.07
  13   1     0.08   0.05  -0.01    -0.00  -0.00   0.00     0.00   0.08  -0.00
  14   1     0.01  -0.01   0.01     0.01  -0.00  -0.00    -0.01  -0.03   0.12
  15   1     0.01  -0.01   0.00     0.00   0.00  -0.00    -0.00  -0.12   0.00
  16   1    -0.04   0.00   0.00    -0.00  -0.00   0.02    -0.00  -0.05   0.21
  17   1    -0.03  -0.00   0.00     0.03  -0.02  -0.00    -0.02  -0.21   0.01
  18   1     0.01  -0.00   0.00    -0.03  -0.04   0.01    -0.03   0.49  -0.06
  19   1     0.01   0.00   0.00    -0.07  -0.01   0.03     0.01   0.08  -0.49
  20   1    -0.00   0.00  -0.00    -0.03   0.02  -0.01     0.00  -0.01   0.00
  21   1    -0.00  -0.01  -0.01    -0.06  -0.30  -0.14    -0.06   0.04   0.23
  22   1     0.01  -0.01  -0.01     0.15  -0.26  -0.15    -0.00  -0.10  -0.17
  23   1     0.00  -0.02   0.00     0.07  -0.34   0.04    -0.33  -0.05   0.01
  24   1    -0.00  -0.00  -0.00     0.17   0.27  -0.21     0.06   0.03  -0.13
  25   1    -0.00  -0.00   0.00     0.32   0.24   0.02     0.14  -0.18   0.02
  26   1    -0.00  -0.00   0.00     0.32   0.09  -0.18     0.01  -0.04   0.15
                     46                     47                     48
                        a                      a                      a 
 Frequencies --  1495.2721              1499.0713              1499.5230
 Red. masses --     1.9387                 1.7799                 1.9721
 Frc consts  --     0.0000                 0.0000                 0.0000
 IR Inten    --     0.0593                 0.0401                 0.3153
 Raman Activ --     0.0000                 0.0000                 0.0000
 Depolar     --     0.0000                 0.0000                 0.0000
 Atom AN      X      Y      Z        X      Y      Z        X      Y      Z
   1   6     0.00   0.03  -0.02     0.01  -0.01   0.01    -0.01  -0.04   0.03
   2   6     0.02  -0.09   0.07     0.02   0.11  -0.09    -0.04   0.12  -0.09
   3   6     0.04  -0.07   0.06    -0.01  -0.13   0.11    -0.00   0.15  -0.11
   4   6    -0.03   0.15  -0.12    -0.01  -0.04   0.03     0.00   0.09  -0.08
   5   6    -0.03   0.09  -0.09     0.01   0.01  -0.02    -0.02   0.07  -0.07
   6   6     0.03   0.02  -0.01     0.01   0.02  -0.01     0.02   0.01  -0.00
   7   6     0.05  -0.02  -0.00     0.09   0.00   0.01     0.04  -0.01   0.01
   8   6    -0.01  -0.00  -0.01    -0.06   0.05  -0.04    -0.01  -0.00  -0.02
   9   1    -0.01  -0.11   0.00    -0.02   0.03  -0.00     0.02   0.17  -0.01
  10   1    -0.03   0.03  -0.02    -0.01   0.01  -0.01     0.05  -0.05   0.04
  11   1    -0.00  -0.03   0.11    -0.02   0.01  -0.03     0.01   0.05  -0.17
  12   1    -0.02   0.07  -0.26     0.00  -0.10   0.35     0.03  -0.09   0.34
  13   1    -0.02   0.27  -0.00    -0.01  -0.36   0.01     0.02  -0.35   0.01
  14   1    -0.03   0.06  -0.21    -0.01   0.11  -0.40     0.02  -0.10   0.38
  15   1    -0.03   0.22  -0.00     0.00   0.42  -0.01     0.01  -0.40   0.01
  16   1     0.06  -0.11   0.45     0.01   0.02  -0.11     0.03  -0.06   0.24
  17   1     0.02  -0.47   0.02     0.01   0.11  -0.00     0.00  -0.25   0.01
  18   1     0.04  -0.28   0.03     0.00  -0.06   0.01     0.02  -0.23   0.02
  19   1     0.02  -0.05   0.28     0.00  -0.01   0.06     0.01  -0.04   0.23
  20   1    -0.01  -0.01  -0.00    -0.00  -0.00  -0.00    -0.00  -0.00  -0.00
  21   1    -0.01   0.06   0.10    -0.01   0.09   0.13     0.01   0.07   0.05
  22   1    -0.03  -0.01  -0.08    -0.07  -0.05  -0.20    -0.05  -0.01  -0.10
  23   1    -0.15   0.00   0.00    -0.27  -0.08   0.02    -0.13  -0.03   0.01
  24   1    -0.00   0.02   0.02     0.05   0.08  -0.08    -0.00   0.05   0.04
  25   1    -0.01  -0.02   0.00     0.11  -0.22   0.01    -0.02  -0.04  -0.00
  26   1     0.02  -0.01   0.03     0.05  -0.05   0.22     0.05  -0.01   0.06
                     49                     50                     51
                        a                      a                      a 
 Frequencies --  1502.1385              1504.4753              1504.9722
 Red. masses --     1.5899                 1.6784                 1.5319
 Frc consts  --     0.0000                 0.0000                 0.0000
 IR Inten    --     0.3396                 0.5227                 2.3865
 Raman Activ --     0.0000                 0.0000                 0.0000
 Depolar     --     0.0000                 0.0000                 0.0000
 Atom AN      X      Y      Z        X      Y      Z        X      Y      Z
   1   6    -0.00   0.01  -0.01     0.01   0.01   0.00    -0.00  -0.13  -0.17
   2   6     0.00  -0.06   0.05     0.01   0.08  -0.06    -0.00  -0.02  -0.04
   3   6     0.00   0.03  -0.02     0.00  -0.05   0.04     0.00  -0.00   0.00
   4   6    -0.01  -0.04   0.04     0.00   0.07  -0.06    -0.00   0.01   0.00
   5   6     0.01   0.01  -0.01    -0.00  -0.07   0.07     0.00  -0.00   0.00
   6   6    -0.01  -0.03  -0.01    -0.00  -0.06  -0.00    -0.00  -0.00   0.00
   7   6     0.02  -0.02   0.12    -0.06   0.00   0.04    -0.00  -0.00   0.00
   8   6    -0.05  -0.02  -0.15     0.07  -0.11  -0.05     0.00  -0.00  -0.00
   9   1     0.01  -0.02   0.00    -0.03  -0.03   0.00     0.43   0.18  -0.05
  10   1     0.00   0.00   0.00    -0.02   0.00  -0.04     0.01   0.44   0.56
  11   1     0.00  -0.01   0.03    -0.00  -0.00   0.02    -0.43  -0.08   0.16
  12   1    -0.00   0.05  -0.19    -0.00  -0.06   0.22     0.02  -0.02   0.02
  13   1    -0.00   0.20  -0.01    -0.00  -0.23   0.01    -0.02   0.00  -0.01
  14   1    -0.00  -0.03   0.10    -0.01   0.05  -0.17     0.02   0.00  -0.01
  15   1     0.00  -0.11   0.00    -0.00   0.18  -0.01    -0.02   0.01  -0.00
  16   1     0.02   0.04  -0.14     0.02  -0.06   0.24    -0.00  -0.00   0.01
  17   1    -0.00   0.15  -0.01     0.00  -0.25   0.01     0.00  -0.01   0.00
  18   1    -0.00  -0.04   0.01    -0.00   0.26  -0.03    -0.00   0.01  -0.00
  19   1    -0.03  -0.01   0.04    -0.02   0.05  -0.25    -0.00   0.00  -0.01
  20   1     0.02   0.04  -0.01     0.01   0.02  -0.00     0.00   0.00   0.00
  21   1     0.15   0.18  -0.24     0.06  -0.00  -0.18     0.00  -0.00  -0.01
  22   1    -0.24   0.10  -0.26    -0.04   0.07   0.05    -0.00   0.00   0.00
  23   1     0.01  -0.19   0.03     0.20  -0.02   0.00     0.01  -0.00  -0.00
  24   1     0.02   0.37   0.25    -0.10   0.16   0.38    -0.00   0.00   0.01
  25   1    -0.15  -0.21  -0.01    -0.35   0.26  -0.03    -0.01   0.01  -0.00
  26   1     0.33  -0.06   0.37     0.19   0.05  -0.12     0.00   0.00  -0.00
                     52                     53                     54
                        a                      a                      a 
 Frequencies --  1508.0128              1508.3059              1514.0043
 Red. masses --     1.6658                 1.6057                 1.5290
 Frc consts  --     0.0000                 0.0000                 0.0000
 IR Inten    --     0.6571                 2.1774                 3.8013
 Raman Activ --     0.0000                 0.0000                 0.0000
 Depolar     --     0.0000                 0.0000                 0.0000
 Atom AN      X      Y      Z        X      Y      Z        X      Y      Z
   1   6    -0.09  -0.13   0.10     0.04   0.05  -0.04    -0.00  -0.00   0.00
   2   6    -0.04  -0.09   0.07     0.02   0.01  -0.01    -0.00   0.00  -0.00
   3   6     0.02  -0.04   0.03    -0.01   0.02  -0.02     0.01   0.00   0.01
   4   6    -0.00  -0.02   0.02     0.01  -0.05   0.05    -0.01  -0.00  -0.01
   5   6    -0.01  -0.00   0.00    -0.02   0.02  -0.02    -0.01  -0.01   0.00
   6   6     0.03  -0.02  -0.00     0.08  -0.03  -0.00     0.03  -0.01   0.07
   7   6     0.04   0.02  -0.01     0.13   0.04  -0.03     0.03  -0.05   0.16
   8   6     0.03  -0.05   0.00     0.07  -0.10   0.01     0.04   0.02   0.11
   9   1     0.11   0.55  -0.02    -0.03  -0.22   0.01     0.00   0.01  -0.00
  10   1     0.17  -0.19   0.14    -0.07   0.08  -0.05     0.00  -0.00   0.00
  11   1     0.10   0.16  -0.54    -0.04  -0.06   0.22     0.00   0.00  -0.01
  12   1     0.02   0.04  -0.16    -0.01   0.01  -0.01     0.00  -0.00   0.01
  13   1     0.02   0.16   0.00    -0.01   0.01  -0.00     0.00  -0.01   0.00
  14   1    -0.01   0.03  -0.11     0.01  -0.02   0.08    -0.01   0.01  -0.02
  15   1    -0.01   0.12  -0.00     0.01  -0.08   0.00    -0.00   0.02  -0.00
  16   1    -0.00   0.01  -0.04    -0.02   0.05  -0.18     0.04  -0.01   0.03
  17   1     0.00   0.04  -0.00    -0.01   0.18  -0.01     0.01  -0.03   0.00
  18   1     0.01   0.02  -0.00     0.01  -0.06   0.01    -0.02   0.05  -0.01
  19   1    -0.00   0.00  -0.02    -0.00  -0.01   0.06     0.02   0.01  -0.05
  20   1    -0.01   0.00  -0.00    -0.03   0.01  -0.00    -0.02   0.02   0.02
  21   1    -0.04   0.02   0.12    -0.09   0.07   0.33     0.22   0.31  -0.33
  22   1     0.01  -0.06  -0.07     0.01  -0.15  -0.23    -0.36   0.15  -0.37
  23   1    -0.16  -0.02   0.01    -0.46  -0.06   0.02    -0.00  -0.28   0.04
  24   1    -0.05   0.01   0.13    -0.10  -0.01   0.25    -0.02  -0.30  -0.18
  25   1    -0.13   0.15  -0.01    -0.25   0.33  -0.03     0.12   0.17   0.00
  26   1     0.03   0.03  -0.12     0.04   0.08  -0.27    -0.26   0.04  -0.28
                     55                     56                     57
                        a                      a                      a 
 Frequencies --  2922.3121              2954.3101              2956.5440
 Red. masses --     1.7409                 1.8866                 1.9527
 Frc consts  --     0.0000                 0.0000                 0.0000
 IR Inten    --    37.8501                 4.2590                11.6967
 Raman Activ --     0.0000                 0.0000                 0.0000
 Depolar     --     0.0000                 0.0000                 0.0000
 Atom AN      X      Y      Z        X      Y      Z        X      Y      Z
   1   6     0.00  -0.00  -0.00    -0.00  -0.00  -0.00     0.00   0.00   0.00
   2   6    -0.00  -0.00  -0.00     0.00   0.06   0.07    -0.00  -0.07  -0.09
   3   6    -0.00   0.00  -0.00    -0.00  -0.12  -0.15     0.00   0.09   0.10
   4   6    -0.00   0.00  -0.01     0.01   0.07   0.13     0.00   0.03   0.06
   5   6     0.00  -0.02  -0.02     0.00  -0.08  -0.08     0.01  -0.17  -0.15
   6   6    -0.01   0.02   0.26     0.00  -0.00  -0.01     0.00  -0.01  -0.02
   7   6    -0.00   0.01  -0.01     0.00  -0.00   0.00     0.00   0.00   0.01
   8   6    -0.00  -0.00  -0.01    -0.00   0.00   0.00    -0.00   0.01   0.00
   9   1    -0.00   0.00  -0.00     0.00  -0.00   0.02    -0.00   0.00  -0.02
  10   1    -0.00  -0.00   0.00     0.00  -0.00  -0.00     0.00   0.00   0.00
  11   1    -0.00   0.00   0.00    -0.00   0.02   0.00     0.00  -0.02  -0.00
  12   1    -0.00   0.00  -0.00     0.00  -0.24  -0.06    -0.00   0.26   0.07
  13   1     0.00   0.00   0.00    -0.01   0.00  -0.22     0.01   0.00   0.26
  14   1    -0.00  -0.00  -0.00    -0.01   0.42   0.11     0.00  -0.33  -0.09
  15   1    -0.00   0.00  -0.00     0.02   0.00   0.45    -0.01  -0.00  -0.28
  16   1     0.00  -0.01  -0.00     0.00  -0.24  -0.04    -0.00  -0.12  -0.02
  17   1     0.00   0.00   0.04    -0.02  -0.02  -0.44    -0.01  -0.01  -0.20
  18   1     0.00   0.01   0.09     0.00   0.02   0.25     0.01   0.04   0.43
  19   1    -0.00   0.06   0.01    -0.02   0.29   0.05    -0.04   0.57   0.10
  20   1     0.02  -0.06  -0.95    -0.00   0.00   0.02    -0.00   0.01   0.07
  21   1     0.02  -0.00   0.00    -0.01   0.00  -0.00    -0.01   0.00  -0.00
  22   1    -0.02  -0.01   0.01     0.00   0.00  -0.00    -0.00  -0.00   0.00
  23   1     0.00   0.01   0.05    -0.00  -0.00  -0.01    -0.00  -0.00  -0.02
  24   1     0.02  -0.01   0.01     0.00  -0.00   0.00     0.00   0.00   0.00
  25   1    -0.00   0.00   0.05    -0.00  -0.00  -0.01    -0.00  -0.00  -0.01
  26   1    -0.00   0.02   0.00     0.00  -0.01  -0.00     0.00  -0.02  -0.01
                     58                     59                     60
                        a                      a                      a 
 Frequencies --  2964.6696              2971.1655              2973.5011
 Red. masses --     1.9308                 1.5834                 1.6720
 Frc consts  --     0.0000                 0.0000                 0.0000
 IR Inten    --     0.7453                21.7028                75.6003
 Raman Activ --     0.0000                 0.0000                 0.0000
 Depolar     --     0.0000                 0.0000                 0.0000
 Atom AN      X      Y      Z        X      Y      Z        X      Y      Z
   1   6    -0.00  -0.01  -0.02     0.00   0.01   0.01     0.00   0.02   0.01
   2   6     0.00   0.11   0.16     0.00  -0.09  -0.05    -0.00  -0.05  -0.10
   3   6     0.00   0.04   0.04    -0.01   0.01  -0.12     0.00  -0.17  -0.01
   4   6    -0.01  -0.05  -0.15    -0.00   0.01  -0.05    -0.00   0.01  -0.12
   5   6     0.01  -0.11  -0.06     0.01  -0.09   0.12     0.00  -0.03  -0.05
   6   6     0.00  -0.00  -0.02     0.00  -0.00   0.01     0.00  -0.00  -0.01
   7   6     0.00   0.00   0.01    -0.00   0.00  -0.00     0.00  -0.00   0.01
   8   6    -0.00   0.01   0.00    -0.01   0.01  -0.01     0.00   0.00   0.00
   9   1     0.00  -0.00   0.06    -0.00   0.00  -0.04    -0.00   0.00  -0.03
  10   1    -0.00  -0.00  -0.00    -0.00   0.00   0.00    -0.01  -0.00   0.01
  11   1    -0.00   0.05   0.01     0.00  -0.03  -0.01     0.00  -0.06  -0.02
  12   1     0.01  -0.40  -0.10    -0.00   0.35   0.10    -0.00   0.15   0.03
  13   1    -0.02  -0.01  -0.48     0.00  -0.01   0.06     0.01   0.01   0.32
  14   1     0.00  -0.12  -0.03    -0.00  -0.08  -0.04    -0.01   0.67   0.21
  15   1    -0.01  -0.00  -0.10     0.02   0.03   0.49    -0.01  -0.03  -0.20
  16   1    -0.00   0.13   0.02    -0.00  -0.08  -0.03    -0.00  -0.11  -0.05
  17   1     0.03   0.03   0.52     0.01   0.02   0.21     0.02   0.04   0.47
  18   1     0.00   0.00   0.10    -0.01  -0.09  -0.54     0.00   0.02   0.15
  19   1    -0.03   0.41   0.08    -0.03   0.44   0.11    -0.01   0.11   0.02
  20   1    -0.00   0.00   0.05     0.00  -0.00  -0.01    -0.00   0.00   0.04
  21   1    -0.01   0.00  -0.00     0.00  -0.00   0.00    -0.00   0.00  -0.00
  22   1    -0.00  -0.00   0.00    -0.00  -0.00   0.00     0.00   0.00  -0.00
  23   1    -0.00  -0.00  -0.02     0.00   0.00   0.01    -0.00  -0.00  -0.02
  24   1     0.00  -0.00   0.00     0.02  -0.01   0.01    -0.00   0.00  -0.00
  25   1    -0.00   0.00  -0.01    -0.00   0.00   0.03    -0.00  -0.00  -0.01
  26   1     0.00  -0.02  -0.01     0.00  -0.02  -0.01     0.00  -0.01  -0.00
                     61                     62                     63
                        a                      a                      a 
 Frequencies --  2976.8801              2980.7444              2990.2970
 Red. masses --     1.5397                 1.6733                 1.5982
 Frc consts  --     0.0000                 0.0000                 0.0000
 IR Inten    --    28.4343                97.7271               105.0710
 Raman Activ --     0.0000                 0.0000                 0.0000
 Depolar     --     0.0000                 0.0000                 0.0000
 Atom AN      X      Y      Z        X      Y      Z        X      Y      Z
   1   6    -0.01  -0.01  -0.00     0.01   0.01  -0.02    -0.01  -0.02   0.01
   2   6    -0.01   0.13  -0.06     0.01  -0.07   0.12    -0.00   0.06  -0.03
   3   6     0.01  -0.01   0.08     0.00  -0.03   0.12    -0.00   0.07  -0.02
   4   6     0.00   0.01   0.07     0.00   0.11   0.08    -0.00   0.20  -0.01
   5   6     0.01  -0.05   0.12     0.00   0.01   0.08    -0.00   0.05  -0.01
   6   6     0.00  -0.00   0.01     0.00   0.00   0.01    -0.00   0.00  -0.00
   7   6    -0.00   0.00  -0.01    -0.01  -0.00  -0.01    -0.01  -0.01   0.01
   8   6    -0.01   0.01  -0.01    -0.00   0.00  -0.01     0.01  -0.01   0.00
   9   1    -0.00  -0.00  -0.00     0.01   0.01   0.08    -0.00  -0.00  -0.03
  10   1     0.02   0.01  -0.01    -0.04  -0.03   0.02     0.04   0.02  -0.02
  11   1    -0.00   0.04   0.01     0.00  -0.02  -0.01    -0.00   0.05   0.02
  12   1     0.01  -0.52  -0.17    -0.00   0.28   0.11     0.00  -0.24  -0.08
  13   1     0.01   0.04   0.38    -0.02  -0.04  -0.53     0.01   0.02   0.18
  14   1    -0.00   0.08   0.04    -0.00   0.14   0.06     0.00  -0.25  -0.08
  15   1    -0.01  -0.02  -0.33    -0.02  -0.03  -0.48     0.01   0.02   0.14
  16   1     0.00  -0.01   0.01    -0.00  -0.43  -0.11    -0.00  -0.76  -0.22
  17   1    -0.01  -0.02  -0.23    -0.01   0.00  -0.15     0.01   0.05   0.28
  18   1    -0.00  -0.08  -0.49    -0.00  -0.04  -0.28     0.00   0.02   0.07
  19   1    -0.02   0.26   0.07    -0.00   0.03   0.02     0.01  -0.19  -0.04
  20   1     0.00  -0.00  -0.04     0.00  -0.00  -0.03     0.00   0.00   0.01
  21   1     0.01  -0.00   0.00     0.01  -0.00   0.00     0.01  -0.01   0.01
  22   1    -0.00  -0.00   0.00     0.01   0.01  -0.01     0.04   0.03  -0.02
  23   1     0.00   0.00   0.03     0.00   0.00   0.02    -0.00  -0.00  -0.00
  24   1     0.02  -0.01   0.01     0.01  -0.00   0.00    -0.02   0.01  -0.01
  25   1    -0.00   0.00   0.03    -0.00   0.00   0.02     0.00  -0.00  -0.01
  26   1     0.00  -0.01  -0.01    -0.00   0.00  -0.00    -0.00   0.03   0.01
                     64                     65                     66
                        a                      a                      a 
 Frequencies --  3024.9389              3026.7819              3029.4988
 Red. masses --     1.8985                 1.8984                 1.9527
 Frc consts  --     0.0000                 0.0000                 0.0000
 IR Inten    --     1.2621                13.1273                33.9184
 Raman Activ --     0.0000                 0.0000                 0.0000
 Depolar     --     0.0000                 0.0000                 0.0000
 Atom AN      X      Y      Z        X      Y      Z        X      Y      Z
   1   6    -0.00   0.00   0.00    -0.00  -0.01  -0.01    -0.00   0.16   0.23
   2   6     0.00  -0.00   0.00    -0.00  -0.00  -0.00     0.00   0.02   0.03
   3   6    -0.00  -0.00  -0.00    -0.00   0.00   0.00     0.00   0.01   0.01
   4   6     0.00  -0.00  -0.00     0.00   0.01   0.00     0.00   0.00   0.00
   5   6     0.00  -0.00  -0.00    -0.00   0.01   0.00    -0.00   0.00  -0.00
   6   6    -0.00   0.00  -0.00     0.00   0.00   0.01    -0.00   0.00  -0.01
   7   6    -0.05   0.01  -0.20     0.18  -0.02   0.04    -0.01  -0.00  -0.05
   8   6     0.02   0.05   0.19    -0.13   0.16   0.03    -0.04   0.02  -0.06
   9   1    -0.00  -0.00  -0.01     0.00  -0.00   0.02    -0.03  -0.01  -0.66
  10   1     0.00   0.00  -0.00     0.01   0.00  -0.00     0.03   0.04   0.02
  11   1     0.00  -0.00  -0.00    -0.00   0.04   0.01     0.01  -0.59  -0.15
  12   1     0.00   0.00   0.00    -0.00  -0.00  -0.00    -0.00  -0.07  -0.02
  13   1    -0.00  -0.00  -0.00     0.00   0.00   0.00    -0.00  -0.00  -0.08
  14   1    -0.00   0.00   0.00     0.00  -0.01  -0.00    -0.00  -0.02  -0.01
  15   1     0.00   0.00   0.00    -0.00   0.00  -0.00     0.00  -0.00  -0.02
  16   1     0.00   0.00  -0.00    -0.00  -0.03  -0.01     0.00  -0.01  -0.00
  17   1     0.00   0.00   0.01     0.00   0.00   0.00    -0.00   0.00  -0.00
  18   1     0.00  -0.00   0.00    -0.00   0.00  -0.00     0.00   0.00   0.02
  19   1    -0.00   0.01   0.00     0.00  -0.04  -0.01     0.00  -0.01  -0.00
  20   1    -0.00  -0.00   0.00     0.00  -0.00  -0.02    -0.00   0.00   0.02
  21   1     0.20  -0.06   0.05    -0.56   0.17  -0.21     0.04  -0.01   0.01
  22   1    -0.05  -0.03  -0.01    -0.11  -0.11   0.09    -0.00   0.00  -0.01
  23   1     0.01   0.06   0.67     0.03  -0.00  -0.01     0.00   0.02   0.16
  24   1    -0.14   0.06  -0.03     0.42  -0.14   0.20     0.15  -0.05   0.06
  25   1     0.02  -0.03  -0.58    -0.01   0.01  -0.18    -0.01   0.01   0.19
  26   1     0.04  -0.22  -0.04     0.06  -0.45  -0.13    -0.00  -0.03  -0.02
                     67                     68                     69
                        a                      a                      a 
 Frequencies --  3030.0051              3031.7918              3033.3393
 Red. masses --     1.9206                 1.9217                 1.7360
 Frc consts  --     0.0000                 0.0000                 0.0000
 IR Inten    --   122.9210                69.5401                74.0331
 Raman Activ --     0.0000                 0.0000                 0.0000
 Depolar     --     0.0000                 0.0000                 0.0000
 Atom AN      X      Y      Z        X      Y      Z        X      Y      Z
   1   6     0.01   0.08   0.06     0.13   0.20  -0.15     0.00   0.01  -0.00
   2   6     0.00   0.01   0.01     0.00   0.02  -0.02    -0.00   0.00   0.00
   3   6     0.00   0.00   0.01    -0.00   0.01  -0.01     0.00   0.00   0.00
   4   6     0.00   0.00   0.01    -0.00   0.00  -0.00     0.00  -0.00   0.00
   5   6     0.00  -0.00   0.01    -0.00   0.00  -0.00    -0.00   0.01   0.00
   6   6     0.00  -0.00   0.03    -0.00  -0.00  -0.00    -0.01   0.01   0.01
   7   6     0.07  -0.00   0.14     0.00  -0.00  -0.02    -0.16   0.02   0.08
   8   6     0.10  -0.05   0.18    -0.01   0.00  -0.02    -0.05   0.17   0.05
   9   1    -0.01   0.00  -0.17     0.04   0.05   0.46     0.00   0.00   0.02
  10   1    -0.05  -0.02   0.04    -0.52  -0.31   0.25    -0.01  -0.01   0.01
  11   1     0.01  -0.25  -0.07     0.03  -0.46  -0.17     0.00  -0.05  -0.02
  12   1    -0.00  -0.03  -0.01    -0.00  -0.07  -0.03    -0.00  -0.01  -0.00
  13   1    -0.00  -0.00  -0.02     0.00   0.01   0.08     0.00   0.00   0.00
  14   1    -0.00  -0.01  -0.00    -0.00  -0.04  -0.02     0.00  -0.01  -0.00
  15   1    -0.00  -0.00  -0.02     0.00   0.00   0.05     0.00   0.00   0.00
  16   1    -0.00  -0.01  -0.00     0.00  -0.02  -0.01    -0.00   0.01   0.00
  17   1    -0.00  -0.00  -0.02     0.00   0.00   0.02    -0.00  -0.00  -0.01
  18   1    -0.00  -0.01  -0.06     0.00   0.00   0.01    -0.00   0.00  -0.00
  19   1    -0.00   0.01   0.01     0.00  -0.01  -0.00     0.00  -0.03  -0.01
  20   1    -0.00  -0.00  -0.07     0.00   0.00   0.01     0.00  -0.00  -0.03
  21   1    -0.23   0.07  -0.07    -0.01   0.00  -0.01     0.49  -0.15   0.20
  22   1    -0.01  -0.02   0.03    -0.00  -0.00  -0.00     0.11   0.12  -0.07
  23   1    -0.00  -0.05  -0.48     0.00   0.01   0.08    -0.04  -0.04  -0.41
  24   1    -0.39   0.14  -0.15     0.05  -0.02   0.02     0.10  -0.01   0.05
  25   1     0.04  -0.04  -0.55    -0.00   0.00   0.06    -0.01   0.02  -0.06
  26   1     0.00   0.07   0.05    -0.00   0.01   0.00     0.10  -0.60  -0.17
                     70                     71                     72
                        a                      a                      a 
 Frequencies --  3036.9219              3037.4086              3047.2751
 Red. masses --     1.2764                 1.2877                 1.5347
 Frc consts  --     0.0000                 0.0000                 0.0000
 IR Inten    --    68.8178                10.3955                38.8335
 Raman Activ --     0.0000                 0.0000                 0.0000
 Depolar     --     0.0000                 0.0000                 0.0000
 Atom AN      X      Y      Z        X      Y      Z        X      Y      Z
   1   6    -0.12   0.02  -0.01    -0.10   0.02  -0.01     0.00   0.00  -0.00
   2   6    -0.00   0.00  -0.00    -0.00   0.00  -0.00     0.00   0.00  -0.00
   3   6     0.00   0.00  -0.00     0.00   0.00  -0.00    -0.00   0.00   0.00
   4   6    -0.00  -0.00   0.00     0.00   0.00   0.00     0.00   0.01   0.00
   5   6     0.00  -0.00   0.00    -0.00   0.00  -0.00     0.00   0.00   0.00
   6   6    -0.00  -0.00   0.00     0.01   0.00  -0.00     0.00   0.01  -0.01
   7   6    -0.04   0.01   0.01     0.05  -0.01  -0.02     0.11   0.16  -0.09
   8   6    -0.08  -0.04   0.01     0.10   0.04  -0.01     0.00  -0.00  -0.01
   9   1     0.00   0.02   0.38     0.00   0.02   0.31     0.00   0.00  -0.00
  10   1     0.42   0.27  -0.22     0.34   0.22  -0.18    -0.01  -0.00   0.00
  11   1    -0.01  -0.36  -0.11    -0.00  -0.30  -0.09     0.00  -0.00  -0.00
  12   1    -0.00  -0.00  -0.00    -0.00  -0.00  -0.00    -0.00  -0.00  -0.00
  13   1    -0.00   0.00   0.01    -0.00   0.00   0.00     0.00   0.00   0.00
  14   1    -0.00  -0.01  -0.00    -0.00  -0.01  -0.00     0.00  -0.01  -0.00
  15   1     0.00   0.00   0.01     0.00   0.00   0.01     0.00   0.00   0.00
  16   1     0.00   0.00   0.00    -0.00  -0.01  -0.00     0.00  -0.05  -0.01
  17   1     0.00  -0.00  -0.00     0.00   0.00   0.00    -0.00   0.00   0.01
  18   1    -0.00  -0.00  -0.01     0.00   0.00   0.01     0.00   0.00   0.00
  19   1    -0.00   0.01   0.00     0.00  -0.01  -0.00     0.00  -0.01  -0.00
  20   1    -0.00  -0.00   0.00     0.00   0.00   0.00    -0.00   0.00   0.02
  21   1     0.13  -0.04   0.05    -0.18   0.06  -0.07     0.25  -0.05   0.07
  22   1     0.01   0.01  -0.01    -0.02  -0.02   0.01    -0.65  -0.54   0.38
  23   1    -0.01  -0.01  -0.09     0.01   0.01   0.12     0.01   0.01  -0.13
  24   1     0.36  -0.14   0.16    -0.44   0.17  -0.20    -0.02   0.01  -0.01
  25   1     0.00  -0.02  -0.29    -0.00   0.02   0.35    -0.00   0.00   0.05
  26   1    -0.06   0.31   0.09     0.07  -0.35  -0.10     0.00  -0.00  -0.00
