      -----------------------------------------------------------      
     |                   =====================                   |     
     |                           x T B                           |     
     |                   =====================                   |     
     |                         S. Grimme                         |     
     |          Mulliken Center for Theoretical Chemistry        |     
     |                    University of Bonn                     |     
      -----------------------------------------------------------      

   * xtb version 6.7.1pre (5071a88) compiled by 'Marcel@Raven' on 2024-07-23

   xtb is free software: you can redistribute it and/or modify it under
   the terms of the GNU Lesser General Public License as published by
   the Free Software Foundation, either version 3 of the License, or
   (at your option) any later version.
   
   xtb is distributed in the hope that it will be useful,
   but WITHOUT ANY WARRANTY; without even the implied warranty of
   MERCHANTABILITY or FITNESS FOR A PARTICULAR PURPOSE.  See the
   GNU Lesser General Public License for more details.
   
   Cite this work as:
   * C. Bannwarth, E. Caldeweyher, S. Ehlert, A. Hansen, P. Pracht,
     J. Seibert, S. Spicher, S. Grimme, WIREs Comput. Mol. Sci., 2020, 11,
     e01493. DOI: 10.1002/wcms.1493
   
   for GFN2-xTB:
   * C. Bannwarth, S. Ehlert and S. Grimme., J. Chem. Theory Comput., 2019,
     15, 1652-1671. DOI: 10.1021/acs.jctc.8b01176
   for GFN1-xTB:
   * S. Grimme, C. Bannwarth, P. Shushkov, J. Chem. Theory Comput., 2017,
     13, 1989-2009. DOI: 10.1021/acs.jctc.7b00118
   for GFN0-xTB:
   * P. Pracht, E. Caldeweyher, S. Ehlert, S. Grimme, ChemRxiv, 2019, preprint.
     DOI: 10.26434/chemrxiv.8326202.v1
   for GFN-FF:
   * S. Spicher and S. Grimme, Angew. Chem. Int. Ed., 2020, 59, 15665-15673.
     DOI: 10.1002/anie.202004239
   
   for ALPB and GBSA implicit solvation:
   * S. Ehlert, M. Stahn, S. Spicher, S. Grimme, J. Chem. Theory Comput.,
     2021, 17, 4250-4261. DOI: 10.1021/acs.jctc.1c00471
   
   for ddCOSMO and CPCM-X implicit solvation:
   * M. Stahn, S. Ehlert, S. Grimme, J. Phys. Chem. A,
     2023, XX, XXXX-XXXX. DOI: 10.1021/acs.jpca.3c04382
   
   for DFT-D4:
   * E. Caldeweyher, C. Bannwarth and S. Grimme, J. Chem. Phys., 2017,
     147, 034112. DOI: 10.1063/1.4993215
   * E. Caldeweyher, S. Ehlert, A. Hansen, H. Neugebauer, S. Spicher,
     C. Bannwarth and S. Grimme, J. Chem. Phys., 2019, 150, 154122.
     DOI: 10.1063/1.5090222
   * E. Caldeweyher, J.-M. Mewes, S. Ehlert and S. Grimme, Phys. Chem. Chem. Phys.
     2020, 22, 8499-8512. DOI: 10.1039/D0CP00502A
   
   for sTDA-xTB:
   * S. Grimme and C. Bannwarth, J. Chem. Phys., 2016, 145, 054103.
     DOI: 10.1063/1.4959605
   
   in the mass-spec context:
   * V. Asgeirsson, C. Bauer and S. Grimme, Chem. Sci., 2017, 8, 4879.
     DOI: 10.1039/c7sc00601b
   * J. Koopman and S. Grimme, ACS Omega 2019, 4, 12, 15120-15133.
     DOI: 10.1021/acsomega.9b02011
   
   for metadynamics refer to:
   * S. Grimme, J. Chem. Theory Comput., 2019, 155, 2847-2862
     DOI: 10.1021/acs.jctc.9b00143
   
   for SPH calculations refer to:
   * S. Spicher and S. Grimme, J. Chem. Theory Comput., 2021, 17, 1701-1714
     DOI: 10.1021/acs.jctc.0c01306
   
   for ONIOM refer to:
   * C. Plett, A. Katbashev, S. Ehlert, S. Grimme, M. Bursch,
     Phys. Chem. Chem. Phys., 2023, 25, 17860-17868. DOI: 10.1039/D3CP02178E
   
   for DIPRO refer to:
   * J. Kohn, N. Gildemeister, S. Grimme, D. Fazzi, A. Hansen,
     J. Chem. Phys., 2023, just accepted.
   
   for PTB refer to:
   * S. Grimme, M. Mueller, A. Hansen, J. Chem. Phys., 2023, 158, 124111.
     DOI: 10.1063/5.0137838
   
   with help from (in alphabetical order)
   P. Atkinson, C. Bannwarth, F. Bohle, G. Brandenburg, E. Caldeweyher
   M. Checinski, S. Dohm, S. Ehlert, S. Ehrlich, I. Gerasimov, C. Hölzer
   A. Katbashev, J. Kohn, J. Koopman, C. Lavigne, S. Lehtola, F. März, M. Müller,
   F. Musil, H. Neugebauer, J. Pisarek, C. Plett, P. Pracht, F. Pultar,
   J. Seibert, P. Shushkov, S. Spicher, M. Stahn, M. Steiner, T. Strunk,
   J. Stückrath, T. Rose, and J. Unsleber
   
 * started run on 2026/09/17 at 00:40:31.023     
   ID    Z sym.   atoms
    1    6 C      1-8
    2    1 H      9-26

           -------------------------------------------------
          |                Calculation Setup                |
           -------------------------------------------------

          program call               : C:\ORCA_6.1.1\xtb-6.7.1pre\xtb.exe optimized.xyz --gfn 2 --chrg 0 --uhf 0 --hess --json
          coordinate file            : optimized.xyz
          omp threads                :                     4


           -------------------------------------------------
          |                 G F N 2 - x T B                 |
           -------------------------------------------------

        Reference                      10.1021/acs.jctc.8b01176
      * Hamiltonian:
        H0-scaling (s, p, d)           1.850000    2.230000    2.230000
        zeta-weighting                 0.500000
      * Dispersion:
        s8                             2.700000
        a1                             0.520000
        a2                             5.000000
        s9                             5.000000
      * Repulsion:
        kExp                           1.500000    1.000000
        rExp                           1.000000
      * Coulomb:
        alpha                          2.000000
        third order                    shell-resolved
        anisotropic                    true
        a3                             3.000000
        a5                             4.000000
        cn-shift                       1.200000
        cn-exp                         4.000000
        max-rad                        5.000000

q/qsh data taken from xtbrestart
CAMM data taken from xtbrestart

          ...................................................
          :                      SETUP                      :
          :.................................................:
          :  # basis functions                  50          :
          :  # atomic orbitals                  50          :
          :  # shells                           34          :
          :  # electrons                        50          :
          :  max. iterations                   250          :
          :  Hamiltonian                  GFN2-xTB          :
          :  restarted?                       true          :
          :  GBSA solvation                  false          :
          :  PC potential                    false          :
          :  electronic temp.          300.0000000     K    :
          :  accuracy                    1.0000000          :
          :  -> integral cutoff          0.2500000E+02      :
          :  -> integral neglect         0.1000000E-07      :
          :  -> SCF convergence          0.1000000E-05 Eh   :
          :  -> wf. convergence          0.1000000E-03 e    :
          :  Broyden damping             0.4000000          :
          :  net charge                          0          :
          :  unpaired electrons                  0          :
          ...................................................

 iter      E             dE          RMSdq      gap      omega  full diag
   1    -26.7223865 -0.267224E+02  0.161E-05   12.63       0.0  T
   2    -26.7223865 -0.248690E-13  0.948E-06   12.63    2069.1  T
   3    -26.7223865  0.142109E-13  0.406E-07   12.63   48341.0  T

   *** convergence criteria satisfied after 3 iterations ***

         #    Occupation            Energy/Eh            Energy/eV
      -------------------------------------------------------------
         1        2.0000           -0.6236163             -16.9695
       ...           ...                  ...                  ...
        19        2.0000           -0.4437023             -12.0738
        20        2.0000           -0.4353878             -11.8475
        21        2.0000           -0.4305991             -11.7172
        22        2.0000           -0.4216000             -11.4723
        23        2.0000           -0.4191804             -11.4065
        24        2.0000           -0.4157348             -11.3127
        25        2.0000           -0.4133565             -11.2480 (HOMO)
        26                          0.0507761               1.3817 (LUMO)
        27                          0.0968046               2.6342
        28                          0.1041990               2.8354
        29                          0.1202067               3.2710
        30                          0.1215899               3.3086
       ...                                ...                  ...
        50                          0.3224296               8.7738
      -------------------------------------------------------------
                  HL-Gap            0.4641326 Eh           12.6297 eV
             Fermi-level           -0.1812902 Eh           -4.9332 eV

 SCC (total)                   0 d,  0 h,  0 min,  0.006 sec
 SCC setup                      ...        0 min,  0.000 sec (  0.000%)
 Dispersion                     ...        0 min,  0.000 sec (  0.000%)
 classical contributions        ...        0 min,  0.000 sec (  0.000%)
 integral evaluation            ...        0 min,  0.001 sec ( 16.665%)
 iterations                     ...        0 min,  0.003 sec ( 50.000%)
 molecular gradient             ...        0 min,  0.002 sec ( 33.335%)
 printout                       ...        0 min,  0.000 sec (  0.000%)

         :::::::::::::::::::::::::::::::::::::::::::::::::::::
         ::                     SUMMARY                     ::
         :::::::::::::::::::::::::::::::::::::::::::::::::::::
         :: total energy             -26.323896944825 Eh    ::
         :: gradient norm              0.000163369737 Eh/a0 ::
         :: HOMO-LUMO gap             12.629690657610 eV    ::
         ::.................................................::
         :: SCC energy               -26.722415380307 Eh    ::
         :: -> isotropic ES            0.005172536195 Eh    ::
         :: -> anisotropic ES          0.008866235935 Eh    ::
         :: -> anisotropic XC          0.016319486046 Eh    ::
         :: -> dispersion             -0.015676812221 Eh    ::
         :: repulsion energy           0.398518435482 Eh    ::
         :: add. restraining           0.000000000000 Eh    ::
         :: total charge              -0.000000000000 e     ::
         :::::::::::::::::::::::::::::::::::::::::::::::::::::

           ------------------------------------------------- 
          |                Numerical Hessian                |
           ------------------------------------------------- 
step length          :   0.00500
SCC accuracy         :   0.30000
Hessian scale factor :   1.00000
frozen atoms in %    :   0.00000    0
RMS gradient         :   0.00016
estimated CPU  time      0.11 min
estimated wall time      0.03 min

writing file <hessian>.

 projected vibrational frequencies (cm⁻¹)
eigval :       -0.00    -0.00    -0.00     0.00     0.00     0.00
eigval :       44.65    55.99    99.16   118.66   125.23   204.42
eigval :      230.71   234.37   239.85   287.49   372.74   409.48
eigval :      457.88   492.68   770.49   794.85   862.57   882.87
eigval :      943.65   947.26   959.63   980.66   992.74  1041.98
eigval :     1061.68  1100.18  1106.48  1123.30  1160.51  1187.92
eigval :     1196.06  1221.24  1252.74  1265.14  1283.97  1292.52
eigval :     1302.24  1334.66  1343.08  1370.85  1378.52  1409.78
eigval :     1416.31  1422.58  1489.66  1495.27  1499.07  1499.52
eigval :     1502.14  1504.48  1504.97  1508.01  1508.31  1514.00
eigval :     2922.31  2954.31  2956.54  2964.67  2971.17  2973.50
eigval :     2976.88  2980.74  2990.30  3024.94  3026.78  3029.50
eigval :     3030.01  3031.79  3033.34  3036.92  3037.41  3047.28
           -------------------------------------------------
          |                Property Printout                |
           -------------------------------------------------

    * Orbital Energies and Occupations

         #    Occupation            Energy/Eh            Energy/eV
      -------------------------------------------------------------
         1        2.0000           -0.6236163             -16.9695
       ...           ...                  ...                  ...
        13        2.0000           -0.4842261             -13.1765
        14        2.0000           -0.4804401             -13.0734
        15        2.0000           -0.4678314             -12.7303
        16        2.0000           -0.4585915             -12.4789
        17        2.0000           -0.4531735             -12.3315
        18        2.0000           -0.4476755             -12.1819
        19        2.0000           -0.4437023             -12.0738
        20        2.0000           -0.4353878             -11.8475
        21        2.0000           -0.4305991             -11.7172
        22        2.0000           -0.4216000             -11.4723
        23        2.0000           -0.4191804             -11.4065
        24        2.0000           -0.4157348             -11.3127
        25        2.0000           -0.4133565             -11.2480 (HOMO)
        26                          0.0507761               1.3817 (LUMO)
        27                          0.0968046               2.6342
        28                          0.1041990               2.8354
        29                          0.1202067               3.2710
        30                          0.1215899               3.3086
        31                          0.1299183               3.5353
        32                          0.1434855               3.9044
        33                          0.1444344               3.9303
        34                          0.1585660               4.3148
        35                          0.1711879               4.6583
        36                          0.1739628               4.7338
       ...                                ...                  ...
        50                          0.3224296               8.7738
      -------------------------------------------------------------
                  HL-Gap            0.4641326 Eh           12.6297 eV
             Fermi-level           -0.1812902 Eh           -4.9332 eV

     #   Z          covCN         q      C6AA      α(0)
     1   6 C        3.752    -0.102    22.507     6.765
     2   6 C        3.801    -0.053    21.520     6.605
     3   6 C        3.803    -0.059    21.630     6.621
     4   6 C        3.802    -0.058    21.615     6.619
     5   6 C        3.806    -0.063    21.704     6.632
     6   6 C        3.849    -0.010    20.719     6.474
     7   6 C        3.756    -0.106    22.573     6.774
     8   6 C        3.757    -0.106    22.581     6.775
     9   1 H        0.925     0.033     2.543     2.494
    10   1 H        0.925     0.032     2.554     2.499
    11   1 H        0.925     0.033     2.544     2.494
    12   1 H        0.924     0.028     2.615     2.529
    13   1 H        0.924     0.028     2.613     2.528
    14   1 H        0.924     0.029     2.603     2.523
    15   1 H        0.924     0.029     2.594     2.519
    16   1 H        0.924     0.031     2.577     2.510
    17   1 H        0.924     0.027     2.628     2.535
    18   1 H        0.924     0.031     2.575     2.510
    19   1 H        0.924     0.030     2.593     2.518
    20   1 H        0.924     0.026     2.649     2.545
    21   1 H        0.925     0.033     2.551     2.498
    22   1 H        0.925     0.033     2.538     2.491
    23   1 H        0.925     0.034     2.525     2.485
    24   1 H        0.925     0.033     2.538     2.491
    25   1 H        0.925     0.034     2.524     2.485
    26   1 H        0.925     0.031     2.569     2.506

 Mol. C6AA /au·bohr⁶  :       4378.798187
 Mol. C8AA /au·bohr⁸  :      90660.616255
 Mol. α(0) /au        :         98.428186


Wiberg/Mayer (AO) data.
largest (>0.10) Wiberg bond orders for each atom

 ---------------------------------------------------------------------------
     #   Z sym  total        # sym  WBO       # sym  WBO       # sym  WBO
 ---------------------------------------------------------------------------
     1   6 C    3.997 --     2 C    1.019    11 H    0.988     9 H    0.988
                            10 H    0.988
     2   6 C    3.998 --     1 C    1.019     3 C    1.008    13 H    0.979
                            12 H    0.979
     3   6 C    3.997 --     2 C    1.008     4 C    1.007    15 H    0.978
                            14 H    0.977
     4   6 C    3.998 --     5 C    1.007     3 C    1.007    17 H    0.977
                            16 H    0.976
     5   6 C    3.997 --     4 C    1.007     6 C    0.996    18 H    0.977
                            19 H    0.976
     6   6 C    3.996 --     7 C    1.010     8 C    1.008     5 C    0.996
                            20 H    0.969
     7   6 C    3.997 --     6 C    1.010    23 H    0.987    21 H    0.986
                            22 H    0.985
     8   6 C    3.997 --     6 C    1.008    25 H    0.987    26 H    0.987
                            24 H    0.987
     9   1 H    0.999 --     1 C    0.988
    10   1 H    0.999 --     1 C    0.988
    11   1 H    0.999 --     1 C    0.988
    12   1 H    0.999 --     2 C    0.979
    13   1 H    0.999 --     2 C    0.979
    14   1 H    0.999 --     3 C    0.977
    15   1 H    0.999 --     3 C    0.978
    16   1 H    0.999 --     4 C    0.976
    17   1 H    0.999 --     4 C    0.977
    18   1 H    0.999 --     5 C    0.977
    19   1 H    0.999 --     5 C    0.976
    20   1 H    0.999 --     6 C    0.969
    21   1 H    0.999 --     7 C    0.986
    22   1 H    0.999 --     7 C    0.985
    23   1 H    0.999 --     7 C    0.987
    24   1 H    0.999 --     8 C    0.987
    25   1 H    0.999 --     8 C    0.987
    26   1 H    0.999 --     8 C    0.987
 ---------------------------------------------------------------------------

Topologies differ in total number of bonds
Writing topology from bond orders to xtbtopo.mol

molecular dipole:
                 x           y           z       tot (Debye)
 q only:       -0.007       0.006       0.016
   full:       -0.004       0.002       0.017       0.045
molecular quadrupole (traceless):
                xx          xy          yy          xz          yz          zz
 q only:        0.294      -0.063      -0.034      -0.043      -0.128      -0.260
  q+dip:       -1.539      -0.043       0.141       0.024       0.685       1.398
   full:       -0.621      -0.049       0.043      -0.013       0.306       0.578

           -------------------------------------------------
          |               Frequency Printout                |
           -------------------------------------------------
 projected vibrational frequencies (cm⁻¹)
eigval :       -0.00    -0.00    -0.00     0.00     0.00     0.00
eigval :       44.65    55.99    99.16   118.66   125.23   204.42
eigval :      230.71   234.37   239.85   287.49   372.74   409.48
eigval :      457.88   492.68   770.49   794.85   862.57   882.87
eigval :      943.65   947.26   959.63   980.66   992.74  1041.98
eigval :     1061.68  1100.18  1106.48  1123.30  1160.51  1187.92
eigval :     1196.06  1221.24  1252.74  1265.14  1283.97  1292.52
eigval :     1302.24  1334.66  1343.08  1370.85  1378.52  1409.78
eigval :     1416.31  1422.58  1489.66  1495.27  1499.07  1499.52
eigval :     1502.14  1504.48  1504.97  1508.01  1508.31  1514.00
eigval :     2922.31  2954.31  2956.54  2964.67  2971.17  2973.50
eigval :     2976.88  2980.74  2990.30  3024.94  3026.78  3029.50
eigval :     3030.01  3031.79  3033.34  3036.92  3037.41  3047.28
 reduced masses (amu)
   1:  9.69   2:  9.80   3: 10.20   4:  9.92   5:  9.62   6:  7.98   7:  6.23   8:  8.43
   9:  8.92  10:  5.82  11:  7.44  12:  1.96  13:  2.46  14:  2.54  15:  8.02  16:  8.73
  17:  8.36  18:  7.93  19:  7.62  20:  8.82  21:  1.73  22:  2.43  23:  4.94  24:  6.24
  25:  5.92  26:  2.71  27:  3.26  28:  4.67  29:  4.89  30:  3.16  31:  9.96  32:  7.86
  33:  9.08  34:  7.16  35:  8.09  36:  6.23  37:  6.98  38:  5.22  39:  3.47  40:  3.28
  41:  1.83  42:  2.38  43:  3.43  44:  4.37  45:  4.57  46:  4.96  47:  5.67  48:  3.31
  49:  3.18  50:  3.10  51:  1.80  52:  1.94  53:  1.78  54:  1.97  55:  1.59  56:  1.68
  57:  1.53  58:  1.67  59:  1.61  60:  1.53  61:  1.74  62:  1.89  63:  1.95  64:  1.93
  65:  1.58  66:  1.67  67:  1.54  68:  1.67  69:  1.60  70:  1.90  71:  1.90  72:  1.95
  73:  1.92  74:  1.92  75:  1.74  76:  1.28  77:  1.29  78:  1.53
 IR intensities (km·mol⁻¹)
   1:  0.00   2:  0.00   3:  0.00   4:  0.00   5:  0.00   6:  0.00   7:  0.00   8:  0.01
   9:  0.07  10:  0.00  11:  0.00  12:  0.02  13:  0.00  14:  0.00  15:  0.03  16:  0.00
  17:  0.15  18:  0.27  19:  0.75  20:  0.78  21: 10.82  22:  0.37  23:  1.84  24:  1.02
  25:  4.81  26:  1.93  27:  2.43  28:  0.79  29:  0.63  30:  0.77  31:  0.71  32:  1.17
  33:  0.48  34:  1.94  35:  3.74  36:  6.62  37:  3.06  38:  0.95  39:  0.20  40:  0.75
  41:  0.50  42:  0.07  43:  0.34  44:  4.04  45:  7.03  46:  0.24  47:  0.60  48:  3.40
  49:  0.79  50:  1.78  51:  0.35  52:  0.06  53:  0.04  54:  0.32  55:  0.34  56:  0.52
  57:  2.39  58:  0.66  59:  2.18  60:  3.80  61: 37.85  62:  4.26  63: 11.70  64:  0.75
  65: 21.70  66: 75.60  67: 28.43  68: 97.73  69:105.07  70:  1.26  71: 13.13  72: 33.92
  73:122.92  74: 69.54  75: 74.03  76: 68.82  77: 10.40  78: 38.83
 Raman intensities (Ä⁴*amu⁻¹)
   1:  0.00   2:  0.00   3:  0.00   4:  0.00   5:  0.00   6:  0.00   7:  0.00   8:  0.00
   9:  0.00  10:  0.00  11:  0.00  12:  0.00  13:  0.00  14:  0.00  15:  0.00  16:  0.00
  17:  0.00  18:  0.00  19:  0.00  20:  0.00  21:  0.00  22:  0.00  23:  0.00  24:  0.00
  25:  0.00  26:  0.00  27:  0.00  28:  0.00  29:  0.00  30:  0.00  31:  0.00  32:  0.00
  33:  0.00  34:  0.00  35:  0.00  36:  0.00  37:  0.00  38:  0.00  39:  0.00  40:  0.00
  41:  0.00  42:  0.00  43:  0.00  44:  0.00  45:  0.00  46:  0.00  47:  0.00  48:  0.00
  49:  0.00  50:  0.00  51:  0.00  52:  0.00  53:  0.00  54:  0.00  55:  0.00  56:  0.00
  57:  0.00  58:  0.00  59:  0.00  60:  0.00  61:  0.00  62:  0.00  63:  0.00  64:  0.00
  65:  0.00  66:  0.00  67:  0.00  68:  0.00  69:  0.00  70:  0.00  71:  0.00  72:  0.00
  73:  0.00  74:  0.00  75:  0.00  76:  0.00  77:  0.00  78:  0.00
 output can be read by thermo (or use thermo option).
 writing <g98.out> molden fake output.
 recommended (thermochemical) frequency scaling factor: 1.0
           -------------------------------------------------
          |             Thermodynamic Functions             |
           -------------------------------------------------

Molecule has no symmetry elements
It seems to be the C1 point group
c1  symmetry found (for desy threshold:  0.10E+00) used in thermo

          ...................................................
          :                      SETUP                      :
          :.................................................:
          :  # frequencies                          72      :
          :  # imaginary freq.                       0      :
          :  linear?                             false      :
          :  only rotor calc.                    false      :
          :  symmetry                               c1      :
          :  rotational number                       1      :
          :  scaling factor                  1.0000000      :
          :  rotor cutoff                   50.0000000 cm⁻¹ :
          :  imag. cutoff                  -20.0000000 cm⁻¹ :
          :.................................................:

    mode    ω/cm⁻¹     T·S(HO)/kcal·mol⁻¹    T·S(FR)/kcal·mol⁻¹   T·S(vib)
   ------------------------------------------------------------------------
       1     44.65    -1.50308 ( 38.87%)    -1.08989 ( 61.13%)    -1.25050
       2     55.99    -1.36965 ( 61.12%)    -1.02289 ( 38.88%)    -1.23483
       3     99.16    -1.03481 ( 93.93%)    -0.85362 (  6.07%)    -1.02381
       4    118.66    -0.93084 ( 96.94%)    -0.80045 (  3.06%)    -0.92685
       5    125.23    -0.89983 ( 97.52%)    -0.78450 (  2.48%)    -0.89697
       6    204.42    -0.62401 ( 99.64%)    -0.63935 (  0.36%)    -0.62406
       7    230.71    -0.55855 ( 99.78%)    -0.60352 (  0.22%)    -0.55865
       8    234.37    -0.55014 ( 99.79%)    -0.59885 (  0.21%)    -0.55024
       9    239.85    -0.53786 ( 99.81%)    -0.59201 (  0.19%)    -0.53796
      10    287.49    -0.44385 ( 99.91%)    -0.53834 (  0.09%)    -0.44393
   ------------------------------------------------------------------------

   temp. (K)  partition function   enthalpy   heat capacity  entropy
                                   cal/mol     cal/K/mol   cal/K/mol   J/K/mol
 298.15  VIB  0.412E+04             5205.873     32.308     32.642
         ROT  0.584E+06              888.752      2.981     29.368
         INT  0.240E+10             6094.625     35.289     62.010
         TR   0.118E+28             1481.254      4.968     40.096
         TOT                        7575.8791    40.2570   102.1062   427.2121

       T/K    H(0)-H(T)+PV         H(T)/Eh          T*S/Eh         G(T)/Eh
   ------------------------------------------------------------------------
    298.15    0.120729E-01    0.255367E+00    0.485139E-01    0.206853E+00
   ------------------------------------------------------------------------

         :::::::::::::::::::::::::::::::::::::::::::::::::::::
         ::                  THERMODYNAMIC                  ::
         :::::::::::::::::::::::::::::::::::::::::::::::::::::
         :: total free energy         -26.117044213852 Eh   ::
         ::.................................................::
         :: total energy              -26.323896944825 Eh   ::
         :: zero point energy           0.243293727768 Eh   ::
         :: G(RRHO) w/o ZPVE           -0.036440996795 Eh   ::
         :: G(RRHO) contrib.            0.206852730973 Eh   ::
         :::::::::::::::::::::::::::::::::::::::::::::::::::::

           -------------------------------------------------
          | TOTAL ENERGY              -26.323896944825 Eh   |
          | TOTAL ENTHALPY            -26.068530285290 Eh   |
          | TOTAL FREE ENERGY         -26.117044213852 Eh   |
          | GRADIENT NORM               0.000163370282 Eh/α |
          | HOMO-LUMO GAP              12.629690652007 eV   |
           -------------------------------------------------

------------------------------------------------------------------------
 * finished run on 2026/09/17 at 00:40:31.497     
------------------------------------------------------------------------
 total:
 * wall-time:     0 d,  0 h,  0 min,  0.472 sec
 *  cpu-time:     0 d,  0 h,  0 min,  1.828 sec
 * ratio c/w:     3.873 speedup
 SCF:
 * wall-time:     0 d,  0 h,  0 min,  0.007 sec
 *  cpu-time:     0 d,  0 h,  0 min,  0.000 sec
 * ratio c/w:     0.000 speedup
 analytical hessian:
 * wall-time:     0 d,  0 h,  0 min,  0.394 sec
 *  cpu-time:     0 d,  0 h,  0 min,  1.547 sec
 * ratio c/w:     3.926 speedup

