13

C     -1.628188    0.281369    0.021128
C     -0.693428    1.308118    0.165145
C      0.672305    1.020167    0.140597
C      1.089835   -0.297033   -0.028425
C      0.165163   -1.325356   -0.172548
C     -1.198857   -1.035529   -0.147739
O      2.413429   -0.624056   -0.058518
H     -2.691315    0.507159    0.040450
H     -1.030778    2.332967    0.296532
H      1.387714    1.828110    0.253727
H      0.505860   -2.348244   -0.303643
H     -1.925241   -1.835874   -0.259977
H      2.933503    0.188203    0.053271
