      -----------------------------------------------------------      
     |                   =====================                   |     
     |                           x T B                           |     
     |                   =====================                   |     
     |                         S. Grimme                         |     
     |          Mulliken Center for Theoretical Chemistry        |     
     |                    University of Bonn                     |     
      -----------------------------------------------------------      

   * xtb version 6.7.1pre (5071a88) compiled by 'Marcel@Raven' on 2024-07-23

   xtb is free software: you can redistribute it and/or modify it under
   the terms of the GNU Lesser General Public License as published by
   the Free Software Foundation, either version 3 of the License, or
   (at your option) any later version.
   
   xtb is distributed in the hope that it will be useful,
   but WITHOUT ANY WARRANTY; without even the implied warranty of
   MERCHANTABILITY or FITNESS FOR A PARTICULAR PURPOSE.  See the
   GNU Lesser General Public License for more details.
   
   Cite this work as:
   * C. Bannwarth, E. Caldeweyher, S. Ehlert, A. Hansen, P. Pracht,
     J. Seibert, S. Spicher, S. Grimme, WIREs Comput. Mol. Sci., 2020, 11,
     e01493. DOI: 10.1002/wcms.1493
   
   for GFN2-xTB:
   * C. Bannwarth, S. Ehlert and S. Grimme., J. Chem. Theory Comput., 2019,
     15, 1652-1671. DOI: 10.1021/acs.jctc.8b01176
   for GFN1-xTB:
   * S. Grimme, C. Bannwarth, P. Shushkov, J. Chem. Theory Comput., 2017,
     13, 1989-2009. DOI: 10.1021/acs.jctc.7b00118
   for GFN0-xTB:
   * P. Pracht, E. Caldeweyher, S. Ehlert, S. Grimme, ChemRxiv, 2019, preprint.
     DOI: 10.26434/chemrxiv.8326202.v1
   for GFN-FF:
   * S. Spicher and S. Grimme, Angew. Chem. Int. Ed., 2020, 59, 15665-15673.
     DOI: 10.1002/anie.202004239
   
   for ALPB and GBSA implicit solvation:
   * S. Ehlert, M. Stahn, S. Spicher, S. Grimme, J. Chem. Theory Comput.,
     2021, 17, 4250-4261. DOI: 10.1021/acs.jctc.1c00471
   
   for ddCOSMO and CPCM-X implicit solvation:
   * M. Stahn, S. Ehlert, S. Grimme, J. Phys. Chem. A,
     2023, XX, XXXX-XXXX. DOI: 10.1021/acs.jpca.3c04382
   
   for DFT-D4:
   * E. Caldeweyher, C. Bannwarth and S. Grimme, J. Chem. Phys., 2017,
     147, 034112. DOI: 10.1063/1.4993215
   * E. Caldeweyher, S. Ehlert, A. Hansen, H. Neugebauer, S. Spicher,
     C. Bannwarth and S. Grimme, J. Chem. Phys., 2019, 150, 154122.
     DOI: 10.1063/1.5090222
   * E. Caldeweyher, J.-M. Mewes, S. Ehlert and S. Grimme, Phys. Chem. Chem. Phys.
     2020, 22, 8499-8512. DOI: 10.1039/D0CP00502A
   
   for sTDA-xTB:
   * S. Grimme and C. Bannwarth, J. Chem. Phys., 2016, 145, 054103.
     DOI: 10.1063/1.4959605
   
   in the mass-spec context:
   * V. Asgeirsson, C. Bauer and S. Grimme, Chem. Sci., 2017, 8, 4879.
     DOI: 10.1039/c7sc00601b
   * J. Koopman and S. Grimme, ACS Omega 2019, 4, 12, 15120-15133.
     DOI: 10.1021/acsomega.9b02011
   
   for metadynamics refer to:
   * S. Grimme, J. Chem. Theory Comput., 2019, 155, 2847-2862
     DOI: 10.1021/acs.jctc.9b00143
   
   for SPH calculations refer to:
   * S. Spicher and S. Grimme, J. Chem. Theory Comput., 2021, 17, 1701-1714
     DOI: 10.1021/acs.jctc.0c01306
   
   for ONIOM refer to:
   * C. Plett, A. Katbashev, S. Ehlert, S. Grimme, M. Bursch,
     Phys. Chem. Chem. Phys., 2023, 25, 17860-17868. DOI: 10.1039/D3CP02178E
   
   for DIPRO refer to:
   * J. Kohn, N. Gildemeister, S. Grimme, D. Fazzi, A. Hansen,
     J. Chem. Phys., 2023, just accepted.
   
   for PTB refer to:
   * S. Grimme, M. Mueller, A. Hansen, J. Chem. Phys., 2023, 158, 124111.
     DOI: 10.1063/5.0137838
   
   with help from (in alphabetical order)
   P. Atkinson, C. Bannwarth, F. Bohle, G. Brandenburg, E. Caldeweyher
   M. Checinski, S. Dohm, S. Ehlert, S. Ehrlich, I. Gerasimov, C. Hölzer
   A. Katbashev, J. Kohn, J. Koopman, C. Lavigne, S. Lehtola, F. März, M. Müller,
   F. Musil, H. Neugebauer, J. Pisarek, C. Plett, P. Pracht, F. Pultar,
   J. Seibert, P. Shushkov, S. Spicher, M. Stahn, M. Steiner, T. Strunk,
   J. Stückrath, T. Rose, and J. Unsleber
   
 * started run on 2026/09/17 at 00:40:25.433     
   ID    Z sym.   atoms
    1    6 C      1-6
    2    8 O      7
    3    1 H      8-13

           -------------------------------------------------
          |                Calculation Setup                |
           -------------------------------------------------

          program call               : C:\ORCA_6.1.1\xtb-6.7.1pre\xtb.exe input.xyz --gfn 2 --chrg 0 --uhf 0 --opt tight --json
          coordinate file            : input.xyz
          omp threads                :                     4


           -------------------------------------------------
          |                 G F N 2 - x T B                 |
           -------------------------------------------------

        Reference                      10.1021/acs.jctc.8b01176
      * Hamiltonian:
        H0-scaling (s, p, d)           1.850000    2.230000    2.230000
        zeta-weighting                 0.500000
      * Dispersion:
        s8                             2.700000
        a1                             0.520000
        a2                             5.000000
        s9                             5.000000
      * Repulsion:
        kExp                           1.500000    1.000000
        rExp                           1.000000
      * Coulomb:
        alpha                          2.000000
        third order                    shell-resolved
        anisotropic                    true
        a3                             3.000000
        a5                             4.000000
        cn-shift                       1.200000
        cn-exp                         4.000000
        max-rad                        5.000000


          ...................................................
          :                      SETUP                      :
          :.................................................:
          :  # basis functions                  34          :
          :  # atomic orbitals                  34          :
          :  # shells                           20          :
          :  # electrons                        36          :
          :  max. iterations                   250          :
          :  Hamiltonian                  GFN2-xTB          :
          :  restarted?                      false          :
          :  GBSA solvation                  false          :
          :  PC potential                    false          :
          :  electronic temp.          300.0000000     K    :
          :  accuracy                    1.0000000          :
          :  -> integral cutoff          0.2500000E+02      :
          :  -> integral neglect         0.1000000E-07      :
          :  -> SCF convergence          0.1000000E-05 Eh   :
          :  -> wf. convergence          0.1000000E-03 e    :
          :  Broyden damping             0.4000000          :
          :  net charge                          0          :
          :  unpaired electrons                  0          :
          ...................................................

 iter      E             dE          RMSdq      gap      omega  full diag
   1    -20.2451660 -0.202452E+02  0.480E+00    4.15       0.0  T
   2    -20.2584293 -0.132632E-01  0.291E+00    4.22       1.0  T
   3    -20.2526662  0.576306E-02  0.119E+00    4.19       1.0  T
   4    -20.2612149 -0.854875E-02  0.247E-01    4.24       1.0  T
   5    -20.2614284 -0.213472E-03  0.814E-02    4.27       1.0  T
   6    -20.2614589 -0.304392E-04  0.400E-02    4.25       1.0  T
   7    -20.2614618 -0.297678E-05  0.116E-02    4.25       2.4  T
   8    -20.2614619 -0.721503E-07  0.574E-03    4.25       4.8  T
   9    -20.2614622 -0.322429E-06  0.172E-03    4.25      16.1  T
  10    -20.2614622 -0.426829E-08  0.438E-04    4.25      63.3  T
  11    -20.2614622 -0.105863E-08  0.169E-04    4.25     164.3  T

   *** convergence criteria satisfied after 11 iterations ***

         #    Occupation            Energy/Eh            Energy/eV
      -------------------------------------------------------------
         1        2.0000           -0.7092452             -19.2995
       ...           ...                  ...                  ...
        12        2.0000           -0.4805103             -13.0753
        13        2.0000           -0.4747481             -12.9186
        14        2.0000           -0.4577587             -12.4562
        15        2.0000           -0.4351588             -11.8413
        16        2.0000           -0.4242627             -11.5448
        17        2.0000           -0.4034921             -10.9796
        18        2.0000           -0.3830044             -10.4221 (HOMO)
        19                         -0.2268609              -6.1732 (LUMO)
        20                         -0.2143023              -5.8315
        21                         -0.0931335              -2.5343
        22                          0.0668528               1.8192
        23                          0.1079313               2.9370
       ...                                ...                  ...
        34                          0.6441449              17.5281
      -------------------------------------------------------------
                  HL-Gap            0.1561434 Eh            4.2489 eV
             Fermi-level           -0.3049327 Eh           -8.2976 eV

 SCC (total)                   0 d,  0 h,  0 min,  0.005 sec
 SCC setup                      ...        0 min,  0.000 sec (  0.000%)
 Dispersion                     ...        0 min,  0.000 sec (  0.000%)
 classical contributions        ...        0 min,  0.000 sec (  0.000%)
 integral evaluation            ...        0 min,  0.000 sec (  0.000%)
 iterations                     ...        0 min,  0.004 sec ( 80.001%)
 molecular gradient             ...        0 min,  0.001 sec ( 19.999%)
 printout                       ...        0 min,  0.000 sec (  0.000%)

         :::::::::::::::::::::::::::::::::::::::::::::::::::::
         ::                     SUMMARY                     ::
         :::::::::::::::::::::::::::::::::::::::::::::::::::::
         :: total energy             -19.953192267068 Eh    ::
         :: gradient norm              0.027012144268 Eh/a0 ::
         :: HOMO-LUMO gap              4.248879183841 eV    ::
         ::.................................................::
         :: SCC energy               -20.261451234430 Eh    ::
         :: -> isotropic ES            0.021330236261 Eh    ::
         :: -> anisotropic ES          0.003434287476 Eh    ::
         :: -> anisotropic XC          0.009270865431 Eh    ::
         :: -> dispersion             -0.009056989293 Eh    ::
         :: repulsion energy           0.308258967362 Eh    ::
         :: add. restraining           0.000000000000 Eh    ::
         :: total charge               0.000000000000 e     ::
         :::::::::::::::::::::::::::::::::::::::::::::::::::::

      ----------------------------------------------------------- 
     |                   =====================                   |
     |                        A N C O P T                        |
     |                   =====================                   |
     |               Approximate Normal Coordinate               |
     |                Rational Function Optimizer                |
      ----------------------------------------------------------- 
      ----------------------------------------------------------- 
     |                   =====================                   |
     |                        A N C O P T                        |
     |                   =====================                   |
     |               Approximate Normal Coordinate               |
     |                Rational Function Optimizer                |
      ----------------------------------------------------------- 

          ...................................................
          :                      SETUP                      :
          :.................................................:
          :   optimization level             tight          :
          :   max. optcycles                   200          :
          :   ANC micro-cycles                  20          :
          :   degrees of freedom                33          :
          :.................................................:
          :   RF solver                   davidson          :
          :   write xtbopt.log                true          :
          :   linear?                        false          :
          :   energy convergence         0.1000000E-05 Eh   :
          :   grad. convergence          0.8000000E-03 Eh/α :
          :   maxmium RF displ.          1.0000000          :
          :   Hlow (freq-cutoff)         0.1000000E-01      :
          :   Hmax (freq-cutoff)         5.0000000          :
          :   S6 in model hess.         20.0000000          :
          ...................................................

generating ANC from exact Hessian ...
Using Lindh-Hessian (1995)
 Shifting diagonal of input Hessian by   1.589153974381729E-003
 Lowest  eigenvalues of input Hessian
    0.000000    0.000000    0.000000    0.000000    0.000000    0.000000
    0.010000    0.015751    0.021235    0.026529    0.040112    0.043880
    0.068324    0.078934    0.088665    0.094223    0.095218    0.098835
 Highest eigenvalues
    1.428040    1.581316    1.696196    1.854723    1.991923    2.048761
 

........................................................................
.............................. CYCLE    1 ..............................
........................................................................

 iter      E             dE          RMSdq      gap      omega  full diag
   1    -20.2614622 -0.202615E+02  0.917E-05    4.25       0.0  T
   2    -20.2614622 -0.291536E-10  0.584E-05    4.25     475.0  T
   3    -20.2614622 -0.213554E-10  0.278E-05    4.25     998.4  T
     SCC iter.                  ...        0 min,  0.001 sec
     gradient                   ...        0 min,  0.001 sec
 * total energy  :   -19.9531923 Eh     change       -0.7197798E-10 Eh
   gradient norm :     0.0270128 Eh/α   predicted     0.0000000E+00 (-100.00%)
   displ. norm   :     0.0735553 α      lambda       -0.1446388E-02
   maximum displ.:     0.0516087 α      in ANC's #18, #17, #20, ...

........................................................................
.............................. CYCLE    2 ..............................
........................................................................

 iter      E             dE          RMSdq      gap      omega  full diag
   1    -20.2762717 -0.202763E+02  0.115E-01    4.34       0.0  T
   2    -20.2762742 -0.254404E-05  0.717E-02    4.33       1.0  T
   3    -20.2762674  0.684747E-05  0.219E-02    4.34       1.3  T
   4    -20.2762755 -0.813942E-05  0.278E-03    4.33      10.0  T
   5    -20.2762756 -0.233169E-07  0.154E-03    4.33      18.0  T
   6    -20.2762756 -0.174985E-08  0.757E-04    4.33      36.7  T
   7    -20.2762756 -0.193832E-08  0.159E-04    4.33     174.4  T
     SCC iter.                  ...        0 min,  0.001 sec
     gradient                   ...        0 min,  0.001 sec
 * total energy  :   -19.9540657 Eh     change       -0.8734111E-03 Eh
   gradient norm :     0.0090556 Eh/α   predicted    -0.7271058E-03 ( -16.75%)
   displ. norm   :     0.0239682 α      lambda       -0.1206483E-03
   maximum displ.:     0.0134977 α      in ANC's #13, #18, #5, ...

........................................................................
.............................. CYCLE    3 ..............................
........................................................................

 iter      E             dE          RMSdq      gap      omega  full diag
   1    -20.2792269 -0.202792E+02  0.474E-02    4.35       0.0  T
   2    -20.2792271 -0.180510E-06  0.280E-02    4.35       1.0  T
   3    -20.2792266  0.519534E-06  0.762E-03    4.36       3.6  T
   4    -20.2792272 -0.650375E-06  0.110E-03    4.35      25.3  T
   5    -20.2792272 -0.547136E-09  0.405E-04    4.35      68.5  T
   6    -20.2792272 -0.693259E-09  0.135E-04    4.35     205.8  T
     SCC iter.                  ...        0 min,  0.001 sec
     gradient                   ...        0 min,  0.001 sec
 * total energy  :   -19.9541359 Eh     change       -0.7020206E-04 Eh
   gradient norm :     0.0030915 Eh/α   predicted    -0.6036020E-04 ( -14.02%)
   displ. norm   :     0.0097896 α      lambda       -0.1394744E-04
   maximum displ.:     0.0065273 α      in ANC's #13, #5, #17, ...

........................................................................
.............................. CYCLE    4 ..............................
........................................................................

 iter      E             dE          RMSdq      gap      omega  full diag
   1    -20.2790220 -0.202790E+02  0.177E-02    4.35       0.0  T
   2    -20.2790221 -0.136179E-06  0.104E-02    4.35       2.7  T
   3    -20.2790220  0.100704E-06  0.487E-03    4.35       5.7  T
   4    -20.2790222 -0.153847E-06  0.609E-04    4.35      45.6  T
   5    -20.2790222 -0.122782E-08  0.257E-04    4.35     107.7  T
     SCC iter.                  ...        0 min,  0.001 sec
     gradient                   ...        0 min,  0.001 sec
 * total energy  :   -19.9541448 Eh     change       -0.8928258E-05 Eh
   gradient norm :     0.0011376 Eh/α   predicted    -0.6974053E-05 ( -21.89%)
   displ. norm   :     0.0069016 α      lambda       -0.2542300E-05
   maximum displ.:     0.0034834 α      in ANC's #5, #17, #13, ...

........................................................................
.............................. CYCLE    5 ..............................
........................................................................

 iter      E             dE          RMSdq      gap      omega  full diag
   1    -20.2784819 -0.202785E+02  0.948E-03    4.35       0.0  T
   2    -20.2784821 -0.183733E-06  0.617E-03    4.35       4.5  T
   3    -20.2784821 -0.501621E-07  0.340E-03    4.35       8.2  T
   4    -20.2784822 -0.268874E-07  0.606E-04    4.35      45.8  T
   5    -20.2784822 -0.157187E-08  0.210E-04    4.35     131.8  T
     SCC iter.                  ...        0 min,  0.000 sec
     gradient                   ...        0 min,  0.001 sec
 * total energy  :   -19.9541461 Eh     change       -0.1278244E-05 Eh
   gradient norm :     0.0004434 Eh/α   predicted    -0.1271637E-05 (  -0.52%)
   displ. norm   :     0.0019485 α      lambda       -0.3042128E-06
   maximum displ.:     0.0014682 α      in ANC's #13, #17, #9, ...

........................................................................
.............................. CYCLE    6 ..............................
........................................................................

 iter      E             dE          RMSdq      gap      omega  full diag
   1    -20.2786139 -0.202786E+02  0.367E-03    4.35       0.0  T
   2    -20.2786139 -0.387361E-08  0.217E-03    4.35      12.8  T
   3    -20.2786139  0.395240E-08  0.831E-04    4.35      33.4  T
   4    -20.2786139 -0.521152E-08  0.110E-04    4.35     251.3  T
     SCC iter.                  ...        0 min,  0.000 sec
     gradient                   ...        0 min,  0.001 sec
 * total energy  :   -19.9541463 Eh     change       -0.2363406E-06 Eh
   gradient norm :     0.0000605 Eh/α   predicted    -0.1529735E-06 ( -35.27%)
   displ. norm   :     0.0004421 α      lambda       -0.6877614E-08
   maximum displ.:     0.0003946 α      in ANC's #5, #18, #20, ...

   *** GEOMETRY OPTIMIZATION CONVERGED AFTER 6 ITERATIONS ***

------------------------------------------------------------------------
 total energy gain   :        -0.0009541 Eh       -0.5987 kcal/mol
 total RMSD          :         0.0267818 a0        0.0142 Å
 total power (kW/mol):        -0.4174790 (step) -156.5543 (real)
------------------------------------------------------------------------

 ANCopt (total)                0 d,  0 h,  0 min,  0.016 sec
 optimizer setup                ...        0 min,  0.000 sec (  0.000%)
 model hessian                  ...        0 min,  0.001 sec (  6.250%)
 ANC generation                 ...        0 min,  0.000 sec (  0.000%)
 coordinate transformation      ...        0 min,  0.000 sec (  0.000%)
 single point calculation       ...        0 min,  0.014 sec ( 87.501%)
 optimization log               ...        0 min,  0.001 sec (  6.250%)
 hessian update                 ...        0 min,  0.000 sec (  0.000%)
 rational function              ...        0 min,  0.000 sec (  0.000%)

================
 final structure:
================
13
 xtb: 6.7.1pre (5071a88)
C           -1.62731654488380        0.28124146092488        0.02112065060792
C           -0.69940598170731        1.29744809980591        0.16368378318742
C            0.65481382573355        1.01507753424287        0.13975722452736
C            1.08849407625969       -0.29431498148222       -0.02808190933643
C            0.15560392336706       -1.31672501542186       -0.17150866126662
C           -1.19379234910132       -1.02420505337820       -0.14620149642754
O            2.41008692495161       -0.61957704961200       -0.05796208249110
H           -2.68309310140695        0.50479471289434        0.04022265807996
H           -1.02753435337505        2.31813612050675        0.29461320331427
H            1.38027871560869        1.81097984720828        0.25140146465922
H            0.51021206579512       -2.32693735492436       -0.30080379593778
H           -1.91293206270095       -1.82200358658827       -0.25803330627106
H            2.94458686145966        0.17608626582388        0.05179226735438
 
 Bond Distances (Angstroems)
 ---------------------------
C1-C2=1.3835         C1-C6=1.3857         C1-H8=1.0794         C2-C1=1.3835         C2-C3=1.3836         C2-H9=1.0801         
C3-C2=1.3836         C3-C4=1.3895         C3-H10=1.0827        C4-C3=1.3895         C4-C5=1.3915         C4-O7=1.3614         
C5-C4=1.3915         C5-C6=1.3810         C5-H11=1.0784        C6-C1=1.3857         C6-C5=1.3810         C6-H12=1.0799        
O7-C4=1.3614         O7-H13=0.9648        H8-C1=1.0794         H9-C2=1.0801         H10-C3=1.0827        H11-C5=1.0784        
H12-C6=1.0799        H13-O7=0.9648        
 C  H  Rav=1.0801 sigma=0.0014  Rmin=1.0784  Rmax=1.0827     5
 C  C  Rav=1.3858 sigma=0.0036  Rmin=1.3810  Rmax=1.3915     6
 O  H  Rav=0.9648 sigma=0.0000  Rmin=0.9648  Rmax=0.9648     1
 O  C  Rav=1.3614 sigma=0.0000  Rmin=1.3614  Rmax=1.3614     1
 
 selected bond angles (degree)
 --------------------
C6-C1-C2=119.64                H8-C1-C2=120.14                H8-C1-C6=120.22                C3-C2-C1=120.32                
H9-C2-C1=120.19                H9-C2-C3=119.49                C4-C3-C2=119.99                H10-C3-C2=120.27               
H10-C3-C4=119.74               C5-C4-C3=119.71                O7-C4-C3=122.06                O7-C4-C5=118.23                
C6-C5-C4=119.84                H11-C5-C4=118.70               H11-C5-C6=121.46               C5-C6-C1=120.50                
H12-C6-C1=120.01               H12-C6-C5=119.49               H13-O7-C4=109.77               
 
 selected dihedral angles (degree)
 ---------------------------------
C3-C2-C1-C6=  0.00            C3-C2-C1-H8=180.00            H9-C2-C1-C6=180.00            H9-C2-C1-H8=  0.00            
C4-C3-C2-C1=  0.00            C4-C3-C2-H9=180.00            H10-C3-C2-C1=180.00           H10-C3-C2-H9=  0.00           
C5-C4-C3-C2=  0.00            C5-C4-C3-H10=180.00           O7-C4-C3-C2=180.00            O7-C4-C3-H10=  0.00           
C6-C5-C4-C3=  0.00            C6-C5-C4-O7=180.00            H11-C5-C4-C3=180.00           H11-C5-C4-O7=  0.00           
C5-C6-C1-C2=  0.00            C5-C6-C1-H8=180.00            H12-C6-C1-C2=180.00           H12-C6-C1-H8=  0.00           
C1-C6-C5-C4=  0.00            C1-C6-C5-H11=180.00           H12-C6-C5-C4=180.00           H12-C6-C5-H11=  0.00          
H13-O7-C4-C3=  0.00           H13-O7-C4-C5=180.00           
           -------------------------------------------------
          |                Final Singlepoint                |
           -------------------------------------------------

          ...................................................
          :                      SETUP                      :
          :.................................................:
          :  # basis functions                  34          :
          :  # atomic orbitals                  34          :
          :  # shells                           20          :
          :  # electrons                        36          :
          :  max. iterations                   250          :
          :  Hamiltonian                  GFN2-xTB          :
          :  restarted?                      false          :
          :  GBSA solvation                  false          :
          :  PC potential                    false          :
          :  electronic temp.          300.0000000     K    :
          :  accuracy                    1.0000000          :
          :  -> integral cutoff          0.2500000E+02      :
          :  -> integral neglect         0.1000000E-07      :
          :  -> SCF convergence          0.1000000E-05 Eh   :
          :  -> wf. convergence          0.1000000E-03 e    :
          :  Broyden damping             0.4000000          :
          :  net charge                          0          :
          :  unpaired electrons                  0          :
          ...................................................

 iter      E             dE          RMSdq      gap      omega  full diag
   1    -20.2786139 -0.202786E+02  0.383E-05    4.35       0.0  T
   2    -20.2786139 -0.208189E-11  0.211E-05    4.35    1315.9  T
   3    -20.2786139 -0.110134E-12  0.124E-05    4.35    2228.5  T

   *** convergence criteria satisfied after 3 iterations ***

         #    Occupation            Energy/Eh            Energy/eV
      -------------------------------------------------------------
         1        2.0000           -0.7098743             -19.3167
       ...           ...                  ...                  ...
        12        2.0000           -0.4799546             -13.0602
        13        2.0000           -0.4757698             -12.9464
        14        2.0000           -0.4600569             -12.5188
        15        2.0000           -0.4355638             -11.8523
        16        2.0000           -0.4223506             -11.4927
        17        2.0000           -0.4049107             -11.0182
        18        2.0000           -0.3832091             -10.4277 (HOMO)
        19                         -0.2232709              -6.0755 (LUMO)
        20                         -0.2129724              -5.7953
        21                         -0.0878513              -2.3906
        22                          0.0708125               1.9269
        23                          0.1156341               3.1466
       ...                                ...                  ...
        34                          0.6709720              18.2581
      -------------------------------------------------------------
                  HL-Gap            0.1599383 Eh            4.3521 eV
             Fermi-level           -0.3032400 Eh           -8.2516 eV

 SCC (total)                   0 d,  0 h,  0 min,  0.002 sec
 SCC setup                      ...        0 min,  0.000 sec (  0.000%)
 Dispersion                     ...        0 min,  0.000 sec (  0.000%)
 classical contributions        ...        0 min,  0.000 sec (  0.000%)
 integral evaluation            ...        0 min,  0.001 sec ( 50.000%)
 iterations                     ...        0 min,  0.000 sec (  0.000%)
 molecular gradient             ...        0 min,  0.001 sec ( 50.000%)
 printout                       ...        0 min,  0.000 sec (  0.000%)

         :::::::::::::::::::::::::::::::::::::::::::::::::::::
         ::                     SUMMARY                     ::
         :::::::::::::::::::::::::::::::::::::::::::::::::::::
         :: total energy             -19.954146323170 Eh    ::
         :: gradient norm              0.000060591238 Eh/a0 ::
         :: HOMO-LUMO gap              4.352141837448 eV    ::
         ::.................................................::
         :: SCC energy               -20.278603188184 Eh    ::
         :: -> isotropic ES            0.021166297592 Eh    ::
         :: -> anisotropic ES          0.003328508176 Eh    ::
         :: -> anisotropic XC          0.008630735310 Eh    ::
         :: -> dispersion             -0.009085900405 Eh    ::
         :: repulsion energy           0.324456865014 Eh    ::
         :: add. restraining           0.000000000000 Eh    ::
         :: total charge               0.000000000000 e     ::
         :::::::::::::::::::::::::::::::::::::::::::::::::::::

           -------------------------------------------------
          |                Property Printout                |
           -------------------------------------------------

    * Orbital Energies and Occupations

         #    Occupation            Energy/Eh            Energy/eV
      -------------------------------------------------------------
         1        2.0000           -0.7098743             -19.3167
       ...           ...                  ...                  ...
         6        2.0000           -0.5797177             -15.7749
         7        2.0000           -0.5530745             -15.0499
         8        2.0000           -0.5340646             -14.5326
         9        2.0000           -0.5221523             -14.2085
        10        2.0000           -0.5125503             -13.9472
        11        2.0000           -0.4873726             -13.2621
        12        2.0000           -0.4799546             -13.0602
        13        2.0000           -0.4757698             -12.9464
        14        2.0000           -0.4600569             -12.5188
        15        2.0000           -0.4355638             -11.8523
        16        2.0000           -0.4223506             -11.4927
        17        2.0000           -0.4049107             -11.0182
        18        2.0000           -0.3832091             -10.4277 (HOMO)
        19                         -0.2232709              -6.0755 (LUMO)
        20                         -0.2129724              -5.7953
        21                         -0.0878513              -2.3906
        22                          0.0708125               1.9269
        23                          0.1156341               3.1466
        24                          0.1494322               4.0663
        25                          0.1630841               4.4377
        26                          0.1917875               5.2188
        27                          0.1963200               5.3421
        28                          0.2125872               5.7848
        29                          0.3999143              10.8822
       ...                                ...                  ...
        34                          0.6709720              18.2581
      -------------------------------------------------------------
                  HL-Gap            0.1599383 Eh            4.3521 eV
             Fermi-level           -0.3032400 Eh           -8.2516 eV

     #   Z          covCN         q      C6AA      α(0)
     1   6 C        2.919    -0.042    29.035     8.836
     2   6 C        2.921    -0.030    28.745     8.792
     3   6 C        2.919    -0.070    29.738     8.942
     4   6 C        2.847     0.146    24.820     8.165
     5   6 C        2.919    -0.053    29.317     8.879
     6   6 C        2.921    -0.029    28.735     8.791
     7   8 O        1.660    -0.394    20.727     6.146
     8   1 H        0.926     0.032     2.558     2.501
     9   1 H        0.926     0.033     2.550     2.497
    10   1 H        0.925     0.024     2.668     2.555
    11   1 H        0.926     0.049     2.336     2.390
    12   1 H        0.926     0.036     2.504     2.475
    13   1 H        0.805     0.298     0.727     1.339

 Mol. C6AA /au·bohr⁶  :       2046.285777
 Mol. C8AA /au·bohr⁸  :      49548.347376
 Mol. α(0) /au        :         72.308594


Wiberg/Mayer (AO) data.
largest (>0.10) Wiberg bond orders for each atom

 ---------------------------------------------------------------------------
     #   Z sym  total        # sym  WBO       # sym  WBO       # sym  WBO
 ---------------------------------------------------------------------------
     1   6 C    3.992 --     2 C    1.441     6 C    1.428     8 H    0.972
     2   6 C    3.992 --     3 C    1.444     1 C    1.441     9 H    0.971
                             5 C    0.110
     3   6 C    3.988 --     2 C    1.444     4 C    1.377    10 H    0.967
                             6 C    0.106
     4   6 C    3.938 --     3 C    1.377     5 C    1.364     7 O    1.070
     5   6 C    3.989 --     6 C    1.459     4 C    1.364    11 H    0.969
                             2 C    0.110
     6   6 C    3.992 --     5 C    1.459     1 C    1.428    12 H    0.971
                             3 C    0.106
     7   8 O    2.119 --     4 C    1.070    13 H    0.890
     8   1 H    0.999 --     1 C    0.972
     9   1 H    0.999 --     2 C    0.971
    10   1 H    0.999 --     3 C    0.967
    11   1 H    0.998 --     5 C    0.969
    12   1 H    0.999 --     6 C    0.971
    13   1 H    0.911 --     7 O    0.890
 ---------------------------------------------------------------------------

Topologies differ in total number of bonds
Writing topology from bond orders to xtbtopo.mol

molecular dipole:
                 x           y           z       tot (Debye)
 q only:        0.052       0.357       0.047
   full:        0.128       0.576       0.077       1.513
molecular quadrupole (traceless):
                xx          xy          yy          xz          yz          zz
 q only:        2.103       3.630      -0.350       0.515       0.224      -1.753
  q+dip:        3.502       5.479       1.513       0.804       0.928      -5.015
   full:        2.722       5.442       0.126       0.770       0.452      -2.847

           -------------------------------------------------
          |                Geometry Summary                 |
           -------------------------------------------------

      molecular mass/u    :       94.1114648
   center of mass at/Å    :        0.1943288      -0.1035447      -0.0117152
  moments of inertia/u·Å² :        0.8825762E+02   0.1910123E+03   0.2792699E+03
rotational constants/cm⁻¹ :        0.1910048E+00   0.8825419E-01   0.6036323E-01

 * 13 selected distances

     #   Z          #   Z                                           value/Å
     1   6 C        2   6 C                                       1.3834806
     2   6 C        3   6 C                                       1.3835524
     3   6 C        4   6 C                                       1.3895171
     4   6 C        5   6 C                                       1.3914661 (max)
     1   6 C        6   6 C                                       1.3856879
     5   6 C        6   6 C                                       1.3809703
     4   6 C        7   8 O                                       1.3613582
     1   6 C        8   1 H                                       1.0793541
     2   6 C        9   1 H                                       1.0800995
     3   6 C       10   1 H                                       1.0826931
     5   6 C       11   1 H                                       1.0784217
     6   6 C       12   1 H                                       1.0798847
     7   8 O       13   1 H                                       0.9647883 (min)

 * 4 distinct bonds (by element types)

   Z      Z             #   av. dist./Å        max./Å        min./Å
   1 H    6 C           5     1.0800906     1.0826931     1.0784217
   6 C    6 C           6     1.3857791     1.3914661     1.3809703
   1 H    8 O           1     0.9647883     0.9647883     0.9647883
   6 C    8 O           1     1.3613582     1.3613582     1.3613582


optimized geometry written to: xtbopt.xyz


           -------------------------------------------------
          | TOTAL ENERGY              -19.954146323170 Eh   |
          | GRADIENT NORM               0.000060591238 Eh/α |
          | HOMO-LUMO GAP               4.352141837448 eV   |
           -------------------------------------------------

------------------------------------------------------------------------
 * finished run on 2026/09/17 at 00:40:25.529     
------------------------------------------------------------------------
 total:
 * wall-time:     0 d,  0 h,  0 min,  0.094 sec
 *  cpu-time:     0 d,  0 h,  0 min,  0.281 sec
 * ratio c/w:     2.992 speedup
 SCF:
 * wall-time:     0 d,  0 h,  0 min,  0.005 sec
 *  cpu-time:     0 d,  0 h,  0 min,  0.000 sec
 * ratio c/w:     0.000 speedup
 ANC optimizer:
 * wall-time:     0 d,  0 h,  0 min,  0.023 sec
 *  cpu-time:     0 d,  0 h,  0 min,  0.125 sec
 * ratio c/w:     5.435 speedup

