26
Coordinates from ORCA-job optfreq E -688.292241395868
  C          -3.14904555556129     -0.57059507284347      0.31770980312673
  C          -1.86057709147548      0.18483321155233      0.62044914078641
  C          -0.67936155064915     -0.37244358249286     -0.16555091590322
  C           0.61465602827267      0.41158407148408      0.11781851258670
  C           1.84819636854636     -0.35902504263841     -0.35271102950378
  C           3.12371876539322      0.44049259541017     -0.17078589495617
  O           4.18814399081063     -0.38386190195917     -0.67451143908263
  O           1.68286545942340     -0.70307755952798     -1.73734132239374
  O           0.54261454681626      1.71247440719560     -0.45372586951691
  O          -1.02861899991976     -0.27959834474657     -1.54942597816754
  O          -1.53533787565934      0.05934862065571      2.00211819579869
  O          -4.19422179416675     -0.14151195636769      1.20634303133801
  H          -3.43394941592124     -0.44788181457056     -0.73371050785141
  H          -3.00641678702587     -1.63829178920554      0.52257480164436
  H          -1.98929824502337      1.24998691226496      0.35079310376389
  H          -0.53276537064722     -1.42352727849083      0.13847106623612
  H           0.70254074012240      0.54263382840500      1.20398335727546
  H           1.92214888905521     -1.28309429481126      0.24846363212725
  H           3.04495095755414      1.38031159323069     -0.73203588409863
  H           3.26950150818562      0.66756835191341      0.89647957806810
  H           4.96188481966560      0.16895705064143     -0.81966100073065
  H           2.54514895143735     -1.00858617568674     -2.04945383928096
  H           0.12115080184758      1.60007326769358     -1.31869334929693
  H          -0.28345107367582     -0.65714842631215     -2.04185414596463
  H          -2.37390419261917      0.12773160065987      2.47940000074705
  H          -4.50057487478591      0.72264672854632      0.90801995324877
