15
Coordinates from ORCA-job optfreq E -308.590578720986
  C       2.436598     -0.353451     -0.530302
  C       1.064765      0.124996     -0.213203
  C       0.559584      1.374528     -0.025246
  C      -0.822779      1.209523      0.251370
  C      -1.064342     -0.129144      0.212840
  O       0.080863     -0.793908     -0.069473
  C      -2.306927     -0.919660      0.418895
  H       2.440255     -0.905942     -1.469395
  H       2.798333     -1.020082      0.251941
  H       3.108767      0.495159     -0.613858
  H       1.098217      2.298772     -0.075997
  H      -1.534486      1.984520      0.450818
  H      -3.133739     -0.249976      0.635312
  H      -2.183512     -1.614754      1.248815
  H      -2.541593     -1.500580     -0.472519
15
Coordinates from ORCA-job optfreq E -308.591711046694
  C       2.438475     -0.359170     -0.530969
  C       1.073878      0.135281     -0.214505
  C       0.564050      1.383378     -0.025712
  C      -0.828984      1.217118      0.252984
  C      -1.075355     -0.121237      0.215415
  O       0.080233     -0.787902     -0.068953
  C      -2.307557     -0.925704      0.418689
  H       2.445055     -0.915287     -1.475513
  H       2.804637     -1.030138      0.254625
  H       3.119605      0.488617     -0.616285
  H       1.109910      2.314086     -0.077565
  H      -1.549033      1.996718      0.454541
  H      -3.142832     -0.258978      0.637238
  H      -2.185732     -1.626104      1.252983
  H      -2.546346     -1.510676     -0.476974
15
Coordinates from ORCA-job optfreq E -308.591973609868
  C       2.433548     -0.363906     -0.530243
  C       1.077524      0.145018     -0.214710
  C       0.565267      1.390787     -0.025506
  C      -0.831675      1.224081      0.253933
  C      -1.080867     -0.112595      0.217198
  O       0.079776     -0.783958     -0.068742
  C      -2.301777     -0.929170      0.417336
  H       2.441770     -0.921084     -1.475472
  H       2.801068     -1.036372      0.255018
  H       3.122894      0.479134     -0.617266
  H       1.114298      2.321278     -0.078077
  H      -1.554780      2.002728      0.456023
  H      -3.144095     -0.269025      0.636928
  H      -2.181116     -1.631188      1.251922
  H      -2.541833     -1.515727     -0.478345
15
Coordinates from ORCA-job optfreq E -308.592011311991
  C       2.430031     -0.365724     -0.529714
  C       1.077748      0.149710     -0.214496
  C       0.564763      1.393941     -0.025227
  C      -0.831775      1.227273      0.254392
  C      -1.081998     -0.108078      0.217949
  O       0.079579     -0.781936     -0.068437
  C      -2.298016     -0.930096      0.416461
  H       2.437816     -0.923030     -1.474205
  H       2.796695     -1.038508      0.254872
  H       3.124531      0.473057     -0.617910
  H       1.114553      2.323192     -0.078170
  H      -1.555377      2.004519      0.456548
  H      -3.144619     -0.275311      0.636009
  H      -2.177116     -1.631870      1.250463
  H      -2.536813     -1.517138     -0.478537
15
Coordinates from ORCA-job optfreq E -308.592016697233
  C       2.428752     -0.366171     -0.529577
  C       1.077391      0.151404     -0.214374
  C       0.564242      1.395102     -0.024969
  C      -0.831480      1.228540      0.254448
  C      -1.081982     -0.106349      0.218190
  O       0.079442     -0.780797     -0.068397
  C      -2.296704     -0.930219      0.416218
  H       2.435501     -0.923397     -1.473728
  H       2.794081     -1.039335      0.254828
  H       3.126105      0.470023     -0.618217
  H       1.114244      2.323752     -0.077945
  H      -1.555147      2.005158      0.456605
  H      -3.145653     -0.278583      0.635397
  H      -2.174957     -1.631495      1.250079
  H      -2.533833     -1.517631     -0.478559
15
Coordinates from ORCA-job optfreq E -308.592017864772
  C       2.428333     -0.366303     -0.529556
  C       1.077187      0.152093     -0.214310
  C       0.563964      1.395729     -0.024919
  C      -0.831311      1.229203      0.254616
  C      -1.081921     -0.105632      0.218261
  O       0.079365     -0.780040     -0.068311
  C      -2.296290     -0.930242      0.416116
  H       2.434109     -0.923554     -1.473628
  H       2.792569     -1.039839      0.254950
  H       3.127340      0.468391     -0.618424
  H       1.114128      2.324188     -0.077993
  H      -1.555078      2.005583      0.456921
  H      -3.146625     -0.280414      0.634912
  H      -2.173741     -1.631161      1.250087
  H      -2.532027     -1.518001     -0.478721
