15
Coordinates from ORCA-job optfreq E -308.592017864772
  C           2.42833307403419     -0.36630273806385     -0.52955631607254
  C           1.07718734001519      0.15209278421106     -0.21431039930934
  C           0.56396434888077      1.39572879737797     -0.02491857688074
  C          -0.83131137208138      1.22920319575842      0.25461601862776
  C          -1.08192102054408     -0.10563195783425      0.21826056351677
  O           0.07936506765839     -0.78003959821985     -0.06831130107211
  C          -2.29629032830849     -0.93024200077268      0.41611592951228
  H           2.43410930437800     -0.92355379196460     -1.47362835585670
  H           2.79256884367103     -1.03983866333238      0.25495009876919
  H           3.12734029018125      0.46839071208201     -0.61842403248758
  H           1.11412810400357      2.32418839937833     -0.07799288518997
  H          -1.55507832689031      2.00558331034124      0.45692101310223
  H          -3.14662493276216     -0.28041412570182      0.63491172316516
  H          -2.17374123306220     -1.63116082511650      1.25008655274992
  H          -2.53202715917379     -1.51800149814308     -0.47872103257434
