 Entering Gaussian System
 *********************************************
 Gaussian 98:
 frequency output generated by the xtb code
 *********************************************
                         Standard orientation:
 --------------------------------------------------------------------
  Center     Atomic     Atomic              Coordinates (Angstroms)
  Number     Number      Type              X           Y           Z
 --------------------------------------------------------------------
    1          6             0        0.223769   -1.325296    0.581512
    2          6             0       -0.664792   -0.417984    0.062087
    3          8             0       -0.010188    0.629816   -0.461996
    4          6             0        1.318462    0.409837   -0.288798
    5          6             0        1.504772   -0.796153    0.353930
    6          6             0        2.261531    1.396410   -0.766792
    7          8             0        3.461650    1.310993   -0.677316
    8          6             0       -2.161751   -0.409044    0.015500
    9          8             0       -2.720054    0.596656    0.826490
   10          1             0       -0.020188   -2.249718    1.062747
   11          1             0        2.449889   -1.222579    0.620114
   12          1             0        1.771161    2.268656   -1.240592
   13          1             0       -2.541625   -1.356154    0.401959
   14          1             0       -2.490335   -0.289121   -1.028660
   15          1             0       -2.382300    1.453679    0.539814
 --------------------------------------------------------------------
     1 basis functions        1 primitive gaussians
     1 alpha electrons        1 beta electrons
 
 Harmonic frequencies (cm**-1), IR intensities (km*mol⁻¹),
 Raman scattering activities (A**4/amu), Raman depolarization ratios,
 reduced masses (AMU), force constants (mDyne/A) and normal coordinates:
                      1                      2                      3
                        a                      a                      a 
 Frequencies --    21.7364                91.3275               149.6545
 Red. masses --    11.2844                14.5484                11.7163
 Frc consts  --     0.0000                 0.0000                 0.0000
 IR Inten    --     4.0037                 6.3176                 6.6025
 Raman Activ --     0.0000                 0.0000                 0.0000
 Depolar     --     0.0000                 0.0000                 0.0000
 Atom AN      X      Y      Z        X      Y      Z        X      Y      Z
   1   6     0.10  -0.19  -0.13    -0.03  -0.04   0.02    -0.09  -0.15   0.05
   2   6     0.03  -0.11   0.14    -0.03  -0.15  -0.15    -0.00  -0.14  -0.07
   3   8    -0.06  -0.01   0.29    -0.04  -0.26  -0.37     0.10  -0.13   0.13
   4   6    -0.03  -0.02   0.05    -0.04  -0.15  -0.20     0.06  -0.11   0.28
   5   6     0.07  -0.14  -0.20    -0.03  -0.04  -0.01    -0.05  -0.14   0.27
   6   6    -0.10   0.08   0.12    -0.09  -0.04  -0.09    -0.16   0.03   0.13
   7   8    -0.10   0.10  -0.05    -0.12   0.33   0.46    -0.13   0.29  -0.43
   8   6     0.02  -0.14   0.25    -0.03   0.04   0.10     0.01   0.17  -0.29
   9   8     0.07   0.43  -0.43     0.40   0.25   0.17     0.27   0.10  -0.03
  10   1     0.05  -0.08  -0.08    -0.01   0.01   0.05    -0.05  -0.05  -0.01
  11   1     0.03  -0.05  -0.11    -0.01   0.01   0.03    -0.03  -0.05   0.12
  12   1    -0.05   0.05   0.10    -0.04  -0.07  -0.12    -0.15  -0.00   0.11
  13   1     0.02   0.03   0.25    -0.03   0.04   0.08    -0.09   0.04  -0.19
  14   1    -0.02  -0.24   0.06    -0.07   0.01   0.05     0.05   0.18  -0.08
  15   1     0.04   0.05  -0.25     0.13   0.04  -0.00     0.16   0.02   0.09
                      4                      5                      6
                        a                      a                      a 
 Frequencies --   181.9659               233.7409               281.0672
 Red. masses --    12.5327                 9.0441                 8.6464
 Frc consts  --     0.0000                 0.0000                 0.0000
 IR Inten    --     2.7597                 9.3401                30.4098
 Raman Activ --     0.0000                 0.0000                 0.0000
 Depolar     --     0.0000                 0.0000                 0.0000
 Atom AN      X      Y      Z        X      Y      Z        X      Y      Z
   1   6     0.05   0.04  -0.08     0.05  -0.11  -0.19    -0.23  -0.01  -0.23
   2   6    -0.04  -0.15  -0.24    -0.00  -0.06  -0.01    -0.05   0.10  -0.32
   3   8    -0.21   0.02  -0.13    -0.09   0.16   0.34     0.17   0.10  -0.11
   4   6    -0.17   0.26   0.11    -0.08   0.21   0.29     0.13  -0.00   0.25
   5   6    -0.03   0.31   0.14     0.00   0.11   0.08    -0.14  -0.06   0.23
   6   6    -0.03   0.15   0.21    -0.02  -0.20  -0.43     0.13  -0.08   0.01
   7   8    -0.05  -0.46  -0.09    -0.06  -0.02   0.18     0.18   0.21  -0.15
   8   6    -0.03  -0.17  -0.02     0.01  -0.02  -0.09    -0.08  -0.15   0.20
   9   8     0.42   0.02   0.04     0.14  -0.00  -0.04     0.01  -0.04   0.13
  10   1     0.04  -0.00  -0.03     0.03  -0.08  -0.14    -0.13  -0.01  -0.11
  11   1     0.01   0.16   0.09     0.01   0.04   0.00    -0.07  -0.05   0.14
  12   1     0.07   0.14   0.16     0.03  -0.24  -0.49    -0.02  -0.08  -0.06
  13   1    -0.00  -0.02   0.06    -0.03  -0.00  -0.05     0.12  -0.03   0.23
  14   1    -0.08  -0.07   0.02     0.02   0.03  -0.03    -0.19  -0.20   0.09
  15   1     0.13  -0.02  -0.05     0.12  -0.02   0.04    -0.29   0.01  -0.24
                      7                      8                      9
                        a                      a                      a 
 Frequencies --   379.5321               409.0383               485.4540
 Red. masses --     3.7310                12.2939                12.9438
 Frc consts  --     0.0000                 0.0000                 0.0000
 IR Inten    --   160.0744                19.1675                 6.3584
 Raman Activ --     0.0000                 0.0000                 0.0000
 Depolar     --     0.0000                 0.0000                 0.0000
 Atom AN      X      Y      Z        X      Y      Z        X      Y      Z
   1   6    -0.15   0.07  -0.01    -0.23   0.23   0.26     0.06   0.06  -0.16
   2   6    -0.07   0.09  -0.05    -0.02   0.25   0.06     0.20   0.25  -0.10
   3   8     0.02   0.10  -0.05    -0.01   0.30   0.19     0.29   0.12  -0.18
   4   6     0.04  -0.02  -0.01    -0.04  -0.11  -0.12     0.05  -0.10   0.09
   5   6    -0.11  -0.03   0.02    -0.17  -0.16  -0.16     0.13  -0.07   0.12
   6   6     0.11  -0.01   0.02    -0.08  -0.08  -0.02    -0.39  -0.03   0.02
   7   8     0.14   0.11  -0.05    -0.09   0.01   0.05    -0.50  -0.26   0.10
   8   6    -0.04  -0.20   0.14     0.12  -0.20  -0.16     0.28   0.09   0.10
   9   8    -0.12  -0.02  -0.16     0.50  -0.20  -0.06    -0.11  -0.02  -0.03
  10   1    -0.07   0.03  -0.00    -0.13   0.11   0.12    -0.06   0.02  -0.07
  11   1    -0.05  -0.03   0.02    -0.06  -0.12  -0.12     0.03  -0.01   0.07
  12   1     0.01  -0.01   0.02    -0.04  -0.01   0.03    -0.12  -0.02   0.00
  13   1     0.05  -0.04   0.13     0.09  -0.07  -0.01     0.17   0.01   0.08
  14   1    -0.07  -0.16   0.04    -0.00  -0.09  -0.04     0.04  -0.05   0.03
  15   1     0.69  -0.11   0.48    -0.01  -0.05  -0.18     0.05   0.01   0.11
                     10                     11                     12
                        a                      a                      a 
 Frequencies --   602.1336               630.5925               722.4861
 Red. masses --    10.7741                12.0588                11.6154
 Frc consts  --     0.0000                 0.0000                 0.0000
 IR Inten    --     0.2793                 3.1044                13.5434
 Raman Activ --     0.0000                 0.0000                 0.0000
 Depolar     --     0.0000                 0.0000                 0.0000
 Atom AN      X      Y      Z        X      Y      Z        X      Y      Z
   1   6    -0.03  -0.18  -0.28     0.14   0.22   0.15    -0.03   0.07  -0.19
   2   6     0.01   0.07   0.15    -0.06  -0.24  -0.49    -0.21   0.23   0.41
   3   8    -0.06   0.14   0.24     0.18   0.12   0.40     0.27  -0.20  -0.08
   4   6    -0.01  -0.28  -0.57     0.15  -0.16  -0.18     0.25   0.02   0.04
   5   6    -0.08   0.22   0.41     0.24  -0.02   0.02     0.12  -0.02   0.07
   6   6     0.02  -0.05  -0.06    -0.06   0.03  -0.09    -0.03   0.32  -0.14
   7   8     0.03   0.04   0.02    -0.10  -0.06   0.06    -0.09  -0.13   0.06
   8   6     0.06  -0.00   0.01    -0.33  -0.02  -0.08    -0.43  -0.18  -0.11
   9   8     0.05  -0.03  -0.02    -0.11   0.08   0.06     0.13  -0.01   0.03
  10   1    -0.01  -0.08  -0.14     0.07   0.08   0.09     0.02  -0.01  -0.10
  11   1    -0.03   0.14   0.26     0.06  -0.02   0.03    -0.02  -0.13   0.03
  12   1    -0.00   0.07   0.14    -0.02   0.04   0.04     0.04   0.09  -0.06
  13   1     0.01  -0.01  -0.02    -0.06   0.01   0.05    -0.15  -0.04  -0.05
  14   1     0.05   0.01  -0.01    -0.22  -0.04   0.02    -0.09  -0.02  -0.03
  15   1    -0.01  -0.01  -0.02     0.01   0.01   0.03     0.08  -0.06  -0.10
                     13                     14                     15
                        a                      a                      a 
 Frequencies --   738.1603               827.2844               856.3437
 Red. masses --    11.0659                 3.0085                 3.6979
 Frc consts  --     0.0000                 0.0000                 0.0000
 IR Inten    --    42.6431                15.1965                 0.0185
 Raman Activ --     0.0000                 0.0000                 0.0000
 Depolar     --     0.0000                 0.0000                 0.0000
 Atom AN      X      Y      Z        X      Y      Z        X      Y      Z
   1   6    -0.26  -0.23   0.16     0.01  -0.13  -0.28     0.01  -0.16  -0.26
   2   6     0.08  -0.17  -0.13    -0.01   0.03   0.06     0.01  -0.01  -0.02
   3   8     0.14  -0.14   0.15     0.00   0.04   0.06    -0.00   0.00   0.01
   4   6     0.14   0.14  -0.09     0.01   0.03   0.07    -0.00  -0.02  -0.04
   5   6    -0.32  -0.05  -0.01     0.02  -0.12  -0.23    -0.02   0.18   0.34
   6   6     0.04   0.53  -0.29    -0.00   0.00   0.00    -0.00   0.02   0.04
   7   8    -0.04  -0.14   0.08    -0.00  -0.00  -0.00     0.00  -0.01  -0.01
   8   6     0.25   0.09   0.07    -0.02  -0.02   0.01     0.01   0.01  -0.01
   9   8    -0.04  -0.02  -0.02     0.01  -0.00  -0.00    -0.01   0.00   0.00
  10   1    -0.08  -0.05   0.07    -0.03   0.34   0.63    -0.02   0.25   0.47
  11   1    -0.14  -0.09   0.06    -0.02   0.25   0.49     0.03  -0.31  -0.61
  12   1     0.11   0.19  -0.09    -0.00  -0.01  -0.03     0.00  -0.02  -0.04
  13   1     0.10   0.02   0.04    -0.02  -0.01  -0.02     0.02   0.00   0.01
  14   1     0.05  -0.02   0.02     0.01   0.01  -0.00    -0.02  -0.01   0.00
  15   1    -0.04   0.02   0.04     0.01  -0.01  -0.02    -0.01   0.01   0.01
                     16                     17                     18
                        a                      a                      a 
 Frequencies --   917.7179               934.4191               962.0709
 Red. masses --     6.2090                 5.9195                10.7943
 Frc consts  --     0.0000                 0.0000                 0.0000
 IR Inten    --     0.3802                29.0840                 8.6561
 Raman Activ --     0.0000                 0.0000                 0.0000
 Depolar     --     0.0000                 0.0000                 0.0000
 Atom AN      X      Y      Z        X      Y      Z        X      Y      Z
   1   6     0.00  -0.02  -0.04     0.03  -0.02  -0.01    -0.02  -0.41   0.21
   2   6     0.00   0.00   0.00    -0.06   0.11   0.13     0.16  -0.03   0.08
   3   8    -0.00  -0.01  -0.03     0.03  -0.27   0.12     0.44   0.29  -0.14
   4   6    -0.01   0.12   0.23    -0.06   0.04  -0.01    -0.00   0.09  -0.04
   5   6     0.00   0.01   0.02    -0.05   0.09  -0.07    -0.29   0.15  -0.10
   6   6     0.02  -0.28  -0.54    -0.00  -0.08   0.03    -0.04  -0.12   0.06
   7   8    -0.01   0.08   0.15     0.01   0.02  -0.01    -0.07   0.01  -0.00
   8   6    -0.00  -0.01   0.01    -0.01   0.31  -0.37    -0.22  -0.12  -0.09
   9   8    -0.00   0.00  -0.00     0.08  -0.12  -0.01    -0.04   0.07   0.08
  10   1    -0.01   0.02   0.03     0.15  -0.03   0.02     0.18  -0.15   0.08
  11   1     0.00  -0.03  -0.05     0.01   0.09  -0.01     0.08   0.32  -0.15
  12   1    -0.02   0.34   0.65    -0.01  -0.02   0.02    -0.06  -0.05   0.03
  13   1    -0.00  -0.00  -0.01     0.30   0.14   0.37    -0.07  -0.03  -0.02
  14   1     0.01   0.01   0.00    -0.32  -0.36  -0.04    -0.10  -0.00  -0.00
  15   1     0.00  -0.00  -0.00    -0.12   0.11   0.25     0.05  -0.03  -0.05
                     19                     20                     21
                        a                      a                      a 
 Frequencies --   994.8502              1041.2515              1061.7941
 Red. masses --    10.7855                 3.8833                12.1824
 Frc consts  --     0.0000                 0.0000                 0.0000
 IR Inten    --     4.6182                32.6373                91.9334
 Raman Activ --     0.0000                 0.0000                 0.0000
 Depolar     --     0.0000                 0.0000                 0.0000
 Atom AN      X      Y      Z        X      Y      Z        X      Y      Z
   1   6     0.10  -0.30   0.15    -0.18   0.06  -0.04    -0.01  -0.06   0.03
   2   6     0.15   0.05   0.06    -0.04   0.01  -0.03    -0.05  -0.09  -0.00
   3   8    -0.32   0.34  -0.20     0.16  -0.28   0.16     0.03   0.18  -0.09
   4   6    -0.07  -0.10   0.05    -0.05  -0.01   0.00     0.05  -0.02   0.02
   5   6     0.27  -0.35   0.18     0.11   0.10  -0.05     0.02  -0.02   0.02
   6   6     0.04   0.24  -0.13     0.01  -0.00   0.00    -0.01   0.02  -0.01
   7   8     0.05  -0.02   0.01     0.01   0.01  -0.00    -0.01  -0.01   0.00
   8   6    -0.12   0.01  -0.20    -0.00   0.03   0.09    -0.26   0.45   0.39
   9   8    -0.02   0.04   0.06     0.02  -0.05  -0.05     0.23  -0.46  -0.35
  10   1    -0.31  -0.03  -0.00    -0.58   0.11  -0.09     0.06  -0.03   0.02
  11   1     0.18   0.07  -0.02     0.32   0.51  -0.26     0.01  -0.00  -0.01
  12   1     0.08   0.09  -0.05     0.01   0.00  -0.00    -0.01   0.00   0.00
  13   1     0.01   0.04   0.10    -0.02  -0.00  -0.02    -0.26   0.20   0.13
  14   1    -0.14  -0.12  -0.03     0.04   0.04   0.01     0.07   0.02   0.02
  15   1    -0.03   0.04   0.07     0.02  -0.02  -0.03    -0.05  -0.02   0.06
                     22                     23                     24
                        a                      a                      a 
 Frequencies --  1135.0136              1163.6328              1234.0122
 Red. masses --     3.3864                 5.4040                10.7099
 Frc consts  --     0.0000                 0.0000                 0.0000
 IR Inten    --    24.9155                11.1898                29.7232
 Raman Activ --     0.0000                 0.0000                 0.0000
 Depolar     --     0.0000                 0.0000                 0.0000
 Atom AN      X      Y      Z        X      Y      Z        X      Y      Z
   1   6    -0.02  -0.03   0.02    -0.24   0.13  -0.08    -0.13  -0.09   0.04
   2   6    -0.06   0.17  -0.08    -0.28  -0.01  -0.04     0.07  -0.03   0.01
   3   8    -0.12  -0.08   0.03    -0.06   0.09  -0.04    -0.40   0.02  -0.03
   4   6    -0.04  -0.10   0.05     0.11  -0.24   0.13     0.74   0.03   0.02
   5   6     0.01  -0.15   0.08     0.02  -0.15   0.08     0.01   0.21  -0.11
   6   6     0.02   0.09  -0.05     0.03   0.14  -0.07    -0.01  -0.05   0.03
   7   8     0.03  -0.00   0.00     0.02  -0.02   0.01    -0.06  -0.08   0.04
   8   6    -0.04   0.24   0.13     0.20  -0.15  -0.02    -0.03   0.05  -0.03
   9   8    -0.03  -0.08  -0.06     0.02   0.07   0.02    -0.02   0.00   0.03
  10   1     0.31  -0.07   0.05     0.47  -0.06   0.06    -0.07  -0.02   0.01
  11   1     0.13   0.17  -0.09     0.24   0.34  -0.17     0.01   0.06  -0.03
  12   1     0.05   0.04  -0.02     0.00   0.03  -0.01    -0.35  -0.17   0.08
  13   1     0.44  -0.21  -0.19    -0.13   0.06   0.05     0.08  -0.02   0.00
  14   1    -0.26   0.22   0.13     0.24  -0.08  -0.07     0.00  -0.03  -0.01
  15   1     0.25  -0.22  -0.34    -0.15   0.14   0.19     0.04  -0.04  -0.05
                     25                     26                     27
                        a                      a                      a 
 Frequencies --  1250.4990              1289.7245              1332.2405
 Red. masses --    11.1651                 3.2215                 3.6441
 Frc consts  --     0.0000                 0.0000                 0.0000
 IR Inten    --   104.7408                17.4114                94.6918
 Raman Activ --     0.0000                 0.0000                 0.0000
 Depolar     --     0.0000                 0.0000                 0.0000
 Atom AN      X      Y      Z        X      Y      Z        X      Y      Z
   1   6     0.25   0.02   0.00     0.04   0.02  -0.01    -0.04   0.08  -0.05
   2   6     0.40   0.49  -0.24     0.07   0.02  -0.10     0.04  -0.02   0.05
   3   8    -0.19  -0.30   0.15     0.00  -0.03   0.02    -0.02  -0.00   0.00
   4   6     0.06   0.05  -0.02    -0.05  -0.00   0.00    -0.01  -0.06   0.03
   5   6    -0.32  -0.18   0.08    -0.05  -0.04   0.03    -0.02   0.00  -0.00
   6   6    -0.02   0.01  -0.01    -0.01   0.00  -0.00     0.01   0.03  -0.01
   7   8     0.02  -0.00   0.00     0.00   0.01  -0.01     0.01  -0.00   0.00
   8   6    -0.16  -0.13   0.06    -0.21   0.21  -0.06     0.33   0.04  -0.18
   9   8     0.04  -0.01  -0.05    -0.07  -0.01   0.24    -0.16  -0.10   0.14
  10   1     0.10   0.01   0.00     0.02   0.01   0.00     0.04   0.02  -0.01
  11   1     0.01   0.12  -0.06     0.00   0.01  -0.01     0.01   0.03  -0.01
  12   1     0.01   0.01  -0.01     0.06   0.03  -0.01    -0.02  -0.00   0.00
  13   1    -0.28   0.06   0.00     0.09   0.03   0.06    -0.45   0.37   0.30
  14   1     0.01   0.05   0.00     0.59  -0.45  -0.28    -0.24   0.08   0.07
  15   1    -0.07   0.06   0.10     0.23  -0.21  -0.28     0.26  -0.27  -0.37
                     28                     29                     30
                        a                      a                      a 
 Frequencies --  1359.5113              1394.3660              1445.3553
 Red. masses --     7.0366                 8.5793                 1.8927
 Frc consts  --     0.0000                 0.0000                 0.0000
 IR Inten    --    15.5873                35.0272                 1.0549
 Raman Activ --     0.0000                 0.0000                 0.0000
 Depolar     --     0.0000                 0.0000                 0.0000
 Atom AN      X      Y      Z        X      Y      Z        X      Y      Z
   1   6     0.38   0.16  -0.07    -0.39  -0.18   0.08     0.02  -0.02   0.01
   2   6    -0.12  -0.16   0.08     0.13   0.25  -0.13    -0.04   0.01  -0.02
   3   8     0.10   0.07  -0.03     0.05  -0.12   0.07     0.01   0.00   0.00
   4   6    -0.16  -0.07   0.03    -0.33   0.09  -0.06    -0.00   0.04  -0.02
   5   6    -0.32  -0.15   0.07     0.42   0.11  -0.04     0.01  -0.02   0.01
   6   6     0.09   0.25  -0.13     0.06   0.12  -0.06    -0.00  -0.01   0.00
   7   8     0.18  -0.11   0.06     0.15  -0.07   0.04     0.00  -0.00   0.00
   8   6     0.01   0.04  -0.01    -0.03  -0.04   0.03    -0.17  -0.17  -0.12
   9   8     0.00   0.00  -0.00     0.01  -0.00   0.00     0.00  -0.02  -0.03
  10   1    -0.10   0.09  -0.05     0.14  -0.10   0.06    -0.01  -0.00   0.00
  11   1    -0.03   0.08  -0.04     0.02  -0.15   0.08     0.00  -0.00   0.00
  12   1    -0.62  -0.22   0.09    -0.47  -0.18   0.08    -0.01  -0.01   0.00
  13   1     0.07  -0.03  -0.02    -0.09   0.02  -0.01     0.30   0.10   0.60
  14   1    -0.01  -0.02  -0.00     0.05  -0.01  -0.02     0.32   0.60  -0.03
  15   1    -0.00   0.00  -0.00     0.00   0.00   0.00     0.00  -0.01  -0.01
                     31                     32                     33
                        a                      a                      a 
 Frequencies --  1476.9870              1562.3203              1733.5626
 Red. masses --    11.7214                11.5038                13.4444
 Frc consts  --     0.0000                 0.0000                 0.0000
 IR Inten    --   159.3561                23.9967               479.2308
 Raman Activ --     0.0000                 0.0000                 0.0000
 Depolar     --     0.0000                 0.0000                 0.0000
 Atom AN      X      Y      Z        X      Y      Z        X      Y      Z
   1   6    -0.15   0.18  -0.10    -0.32   0.31  -0.18     0.02  -0.00   0.00
   2   6     0.51  -0.15   0.11     0.42  -0.34   0.20    -0.01   0.03  -0.02
   3   8    -0.06   0.02  -0.01     0.00   0.02  -0.01    -0.01  -0.02   0.01
   4   6    -0.13  -0.56   0.29     0.01   0.39  -0.20    -0.06   0.01  -0.01
   5   6    -0.07   0.31  -0.17     0.00  -0.36   0.19     0.00  -0.03   0.02
   6   6     0.06   0.15  -0.08    -0.01  -0.08   0.04     0.77  -0.00   0.03
   7   8     0.02  -0.01   0.00    -0.02   0.00  -0.00    -0.62   0.04  -0.04
   8   6    -0.18   0.00  -0.02    -0.11   0.02  -0.03    -0.00  -0.00   0.00
   9   8     0.00   0.01  -0.01    -0.01   0.01  -0.00     0.00  -0.00  -0.00
  10   1     0.03   0.05  -0.03     0.13   0.06  -0.03     0.00  -0.00   0.00
  11   1    -0.09  -0.00  -0.00     0.11   0.06  -0.03     0.01   0.00   0.00
  12   1     0.05   0.04  -0.02    -0.05  -0.03   0.01    -0.03  -0.08   0.04
  13   1     0.06  -0.03   0.02     0.05  -0.03  -0.00    -0.00   0.00   0.00
  14   1    -0.04   0.04   0.01    -0.07   0.00   0.01     0.01   0.00  -0.00
  15   1    -0.02   0.02   0.03    -0.00   0.01   0.01    -0.00   0.00   0.00
                     34                     35                     36
                        a                      a                      a 
 Frequencies --  2775.5273              2861.8712              3005.2012
 Red. masses --     1.6887                 1.7119                 1.7215
 Frc consts  --     0.0000                 0.0000                 0.0000
 IR Inten    --   103.9642                42.6708                 8.2487
 Raman Activ --     0.0000                 0.0000                 0.0000
 Depolar     --     0.0000                 0.0000                 0.0000
 Atom AN      X      Y      Z        X      Y      Z        X      Y      Z
   1   6     0.00   0.00  -0.00     0.00  -0.00   0.00    -0.00  -0.00   0.00
   2   6    -0.00  -0.00   0.00    -0.01   0.01  -0.01     0.00   0.01  -0.00
   3   8    -0.00   0.00  -0.00     0.00  -0.00   0.00    -0.00  -0.00   0.00
   4   6     0.01  -0.02   0.01    -0.00   0.00  -0.00    -0.00  -0.00   0.00
   5   6    -0.00   0.00  -0.00     0.00  -0.00   0.00    -0.00   0.00  -0.00
   6   6     0.10  -0.20   0.11    -0.00   0.00  -0.00     0.00   0.00  -0.00
   7   8     0.02  -0.01   0.01    -0.00   0.00   0.00    -0.00  -0.00  -0.00
   8   6     0.00   0.00  -0.00    -0.08   0.05  -0.24     0.10   0.22  -0.09
   9   8    -0.00   0.00   0.00     0.00  -0.01  -0.01    -0.00   0.01   0.00
  10   1    -0.00  -0.00   0.00     0.00  -0.00   0.00     0.00   0.01  -0.00
  11   1     0.00   0.00  -0.00    -0.00   0.00   0.00     0.00  -0.00   0.00
  12   1    -0.42   0.77  -0.42     0.00  -0.00   0.00     0.00  -0.00   0.00
  13   1    -0.00  -0.00   0.00    -0.02  -0.02  -0.02    -0.34  -0.84   0.35
  14   1     0.00  -0.00   0.01     0.29  -0.12   0.91     0.01   0.03  -0.04
  15   1     0.00   0.00  -0.00     0.00  -0.00   0.00     0.00   0.01  -0.00
                     37                     38                     39
                        a                      a                      a 
 Frequencies --  3187.4873              3197.1283              3533.6788
 Red. masses --     1.8512                 1.9587                 1.8735
 Frc consts  --     0.0000                 0.0000                 0.0000
 IR Inten    --     4.6344                 2.1196                10.3712
 Raman Activ --     0.0000                 0.0000                 0.0000
 Depolar     --     0.0000                 0.0000                 0.0000
 Atom AN      X      Y      Z        X      Y      Z        X      Y      Z
   1   6    -0.04  -0.19   0.10    -0.04  -0.15   0.08     0.00   0.00  -0.00
   2   6    -0.01   0.00  -0.00    -0.01   0.00  -0.00    -0.00  -0.00   0.00
   3   8     0.00   0.00  -0.00    -0.00   0.00  -0.00    -0.00   0.00  -0.00
   4   6    -0.00  -0.00   0.00     0.00   0.01  -0.00     0.00  -0.00   0.00
   5   6    -0.14   0.07  -0.04     0.21  -0.09   0.06     0.00  -0.00   0.00
   6   6    -0.00   0.00  -0.00     0.00  -0.00   0.00    -0.00  -0.00   0.00
   7   8     0.00  -0.00   0.00    -0.00   0.00  -0.00     0.00   0.00  -0.00
   8   6    -0.00  -0.00   0.00     0.00  -0.00   0.00     0.00   0.01  -0.00
   9   8     0.00   0.00  -0.00     0.00   0.00  -0.00     0.08   0.21  -0.07
  10   1     0.17   0.67  -0.35     0.13   0.49  -0.26    -0.00  -0.00   0.00
  11   1     0.51  -0.23   0.14    -0.68   0.31  -0.19     0.00  -0.00   0.00
  12   1    -0.00  -0.00   0.00    -0.00   0.00  -0.00    -0.00   0.00  -0.00
  13   1     0.00   0.00  -0.00     0.00   0.00  -0.00    -0.00  -0.01   0.01
  14   1     0.00   0.00   0.00    -0.00   0.00  -0.00    -0.00  -0.00  -0.00
  15   1    -0.00  -0.00   0.00    -0.00  -0.00   0.00    -0.33  -0.87   0.28
