      -----------------------------------------------------------      
     |                   =====================                   |     
     |                           x T B                           |     
     |                   =====================                   |     
     |                         S. Grimme                         |     
     |          Mulliken Center for Theoretical Chemistry        |     
     |                    University of Bonn                     |     
      -----------------------------------------------------------      

   * xtb version 6.7.1pre (5071a88) compiled by 'Marcel@Raven' on 2024-07-23

   xtb is free software: you can redistribute it and/or modify it under
   the terms of the GNU Lesser General Public License as published by
   the Free Software Foundation, either version 3 of the License, or
   (at your option) any later version.
   
   xtb is distributed in the hope that it will be useful,
   but WITHOUT ANY WARRANTY; without even the implied warranty of
   MERCHANTABILITY or FITNESS FOR A PARTICULAR PURPOSE.  See the
   GNU Lesser General Public License for more details.
   
   Cite this work as:
   * C. Bannwarth, E. Caldeweyher, S. Ehlert, A. Hansen, P. Pracht,
     J. Seibert, S. Spicher, S. Grimme, WIREs Comput. Mol. Sci., 2020, 11,
     e01493. DOI: 10.1002/wcms.1493
   
   for GFN2-xTB:
   * C. Bannwarth, S. Ehlert and S. Grimme., J. Chem. Theory Comput., 2019,
     15, 1652-1671. DOI: 10.1021/acs.jctc.8b01176
   for GFN1-xTB:
   * S. Grimme, C. Bannwarth, P. Shushkov, J. Chem. Theory Comput., 2017,
     13, 1989-2009. DOI: 10.1021/acs.jctc.7b00118
   for GFN0-xTB:
   * P. Pracht, E. Caldeweyher, S. Ehlert, S. Grimme, ChemRxiv, 2019, preprint.
     DOI: 10.26434/chemrxiv.8326202.v1
   for GFN-FF:
   * S. Spicher and S. Grimme, Angew. Chem. Int. Ed., 2020, 59, 15665-15673.
     DOI: 10.1002/anie.202004239
   
   for ALPB and GBSA implicit solvation:
   * S. Ehlert, M. Stahn, S. Spicher, S. Grimme, J. Chem. Theory Comput.,
     2021, 17, 4250-4261. DOI: 10.1021/acs.jctc.1c00471
   
   for ddCOSMO and CPCM-X implicit solvation:
   * M. Stahn, S. Ehlert, S. Grimme, J. Phys. Chem. A,
     2023, XX, XXXX-XXXX. DOI: 10.1021/acs.jpca.3c04382
   
   for DFT-D4:
   * E. Caldeweyher, C. Bannwarth and S. Grimme, J. Chem. Phys., 2017,
     147, 034112. DOI: 10.1063/1.4993215
   * E. Caldeweyher, S. Ehlert, A. Hansen, H. Neugebauer, S. Spicher,
     C. Bannwarth and S. Grimme, J. Chem. Phys., 2019, 150, 154122.
     DOI: 10.1063/1.5090222
   * E. Caldeweyher, J.-M. Mewes, S. Ehlert and S. Grimme, Phys. Chem. Chem. Phys.
     2020, 22, 8499-8512. DOI: 10.1039/D0CP00502A
   
   for sTDA-xTB:
   * S. Grimme and C. Bannwarth, J. Chem. Phys., 2016, 145, 054103.
     DOI: 10.1063/1.4959605
   
   in the mass-spec context:
   * V. Asgeirsson, C. Bauer and S. Grimme, Chem. Sci., 2017, 8, 4879.
     DOI: 10.1039/c7sc00601b
   * J. Koopman and S. Grimme, ACS Omega 2019, 4, 12, 15120-15133.
     DOI: 10.1021/acsomega.9b02011
   
   for metadynamics refer to:
   * S. Grimme, J. Chem. Theory Comput., 2019, 155, 2847-2862
     DOI: 10.1021/acs.jctc.9b00143
   
   for SPH calculations refer to:
   * S. Spicher and S. Grimme, J. Chem. Theory Comput., 2021, 17, 1701-1714
     DOI: 10.1021/acs.jctc.0c01306
   
   for ONIOM refer to:
   * C. Plett, A. Katbashev, S. Ehlert, S. Grimme, M. Bursch,
     Phys. Chem. Chem. Phys., 2023, 25, 17860-17868. DOI: 10.1039/D3CP02178E
   
   for DIPRO refer to:
   * J. Kohn, N. Gildemeister, S. Grimme, D. Fazzi, A. Hansen,
     J. Chem. Phys., 2023, just accepted.
   
   for PTB refer to:
   * S. Grimme, M. Mueller, A. Hansen, J. Chem. Phys., 2023, 158, 124111.
     DOI: 10.1063/5.0137838
   
   with help from (in alphabetical order)
   P. Atkinson, C. Bannwarth, F. Bohle, G. Brandenburg, E. Caldeweyher
   M. Checinski, S. Dohm, S. Ehlert, S. Ehrlich, I. Gerasimov, C. Hölzer
   A. Katbashev, J. Kohn, J. Koopman, C. Lavigne, S. Lehtola, F. März, M. Müller,
   F. Musil, H. Neugebauer, J. Pisarek, C. Plett, P. Pracht, F. Pultar,
   J. Seibert, P. Shushkov, S. Spicher, M. Stahn, M. Steiner, T. Strunk,
   J. Stückrath, T. Rose, and J. Unsleber
   
 * started run on 2026/09/17 at 00:40:20.817     
   ID    Z sym.   atoms
    1    6 C      1, 2, 4-6, 8
    2    8 O      3, 7, 9
    3    1 H      10-15

           -------------------------------------------------
          |                Calculation Setup                |
           -------------------------------------------------

          program call               : C:\ORCA_6.1.1\xtb-6.7.1pre\xtb.exe optimized.xyz --gfn 2 --chrg 0 --uhf 0 --hess --json
          coordinate file            : optimized.xyz
          omp threads                :                     4


           -------------------------------------------------
          |                 G F N 2 - x T B                 |
           -------------------------------------------------

        Reference                      10.1021/acs.jctc.8b01176
      * Hamiltonian:
        H0-scaling (s, p, d)           1.850000    2.230000    2.230000
        zeta-weighting                 0.500000
      * Dispersion:
        s8                             2.700000
        a1                             0.520000
        a2                             5.000000
        s9                             5.000000
      * Repulsion:
        kExp                           1.500000    1.000000
        rExp                           1.000000
      * Coulomb:
        alpha                          2.000000
        third order                    shell-resolved
        anisotropic                    true
        a3                             3.000000
        a5                             4.000000
        cn-shift                       1.200000
        cn-exp                         4.000000
        max-rad                        5.000000


          ...................................................
          :                      SETUP                      :
          :.................................................:
          :  # basis functions                  42          :
          :  # atomic orbitals                  42          :
          :  # shells                           24          :
          :  # electrons                        48          :
          :  max. iterations                   250          :
          :  Hamiltonian                  GFN2-xTB          :
          :  restarted?                      false          :
          :  GBSA solvation                  false          :
          :  PC potential                    false          :
          :  electronic temp.          300.0000000     K    :
          :  accuracy                    1.0000000          :
          :  -> integral cutoff          0.2500000E+02      :
          :  -> integral neglect         0.1000000E-07      :
          :  -> SCF convergence          0.1000000E-05 Eh   :
          :  -> wf. convergence          0.1000000E-03 e    :
          :  Broyden damping             0.4000000          :
          :  net charge                          0          :
          :  unpaired electrons                  0          :
          ...................................................

 iter      E             dE          RMSdq      gap      omega  full diag
   1    -28.3435783 -0.283436E+02  0.484E+00    3.40       0.0  T
   2    -28.3716559 -0.280776E-01  0.279E+00    2.93       1.0  T
   3    -28.3666389  0.501702E-02  0.144E+00    3.19       1.0  T
   4    -28.3787523 -0.121134E-01  0.302E-01    3.03       1.0  T
   5    -28.3793478 -0.595509E-03  0.108E-01    3.02       1.0  T
   6    -28.3794115 -0.637651E-04  0.476E-02    3.03       1.0  T
   7    -28.3794184 -0.687158E-05  0.234E-02    3.03       1.1  T
   8    -28.3794203 -0.193205E-05  0.106E-02    3.03       2.4  T
   9    -28.3794210 -0.683621E-06  0.233E-03    3.03      11.1  T
  10    -28.3794210 -0.112910E-07  0.110E-03    3.03      23.6  T
  11    -28.3794210 -0.276148E-08  0.359E-04    3.03      72.0  T
  12    -28.3794210 -0.583423E-09  0.157E-04    3.03     164.8  T

   *** convergence criteria satisfied after 12 iterations ***

         #    Occupation            Energy/Eh            Energy/eV
      -------------------------------------------------------------
         1        2.0000           -0.7710295             -20.9808
       ...           ...                  ...                  ...
        18        2.0000           -0.5003404             -13.6150
        19        2.0000           -0.4964129             -13.5081
        20        2.0000           -0.4821785             -13.1207
        21        2.0000           -0.4564545             -12.4208
        22        2.0000           -0.4380015             -11.9186
        23        2.0000           -0.4205478             -11.4437
        24        2.0000           -0.4114502             -11.1961 (HOMO)
        25                         -0.3001888              -8.1686 (LUMO)
        26                         -0.2171884              -5.9100
        27                         -0.1654897              -4.5032
        28                          0.0296127               0.8058
        29                          0.0507843               1.3819
       ...                                ...                  ...
        42                          0.6859611              18.6660
      -------------------------------------------------------------
                  HL-Gap            0.1112614 Eh            3.0276 eV
             Fermi-level           -0.3558195 Eh           -9.6823 eV

 SCC (total)                   0 d,  0 h,  0 min,  0.008 sec
 SCC setup                      ...        0 min,  0.000 sec (  0.000%)
 Dispersion                     ...        0 min,  0.000 sec (  0.000%)
 classical contributions        ...        0 min,  0.000 sec (  0.000%)
 integral evaluation            ...        0 min,  0.000 sec (  0.000%)
 iterations                     ...        0 min,  0.006 sec ( 74.999%)
 molecular gradient             ...        0 min,  0.002 sec ( 25.001%)
 printout                       ...        0 min,  0.000 sec (  0.000%)

         :::::::::::::::::::::::::::::::::::::::::::::::::::::
         ::                     SUMMARY                     ::
         :::::::::::::::::::::::::::::::::::::::::::::::::::::
         :: total energy             -28.064630641619 Eh    ::
         :: gradient norm              0.000330178011 Eh/a0 ::
         :: HOMO-LUMO gap              3.027577548114 eV    ::
         ::.................................................::
         :: SCC energy               -28.379406304040 Eh    ::
         :: -> isotropic ES            0.052841169122 Eh    ::
         :: -> anisotropic ES          0.002635260919 Eh    ::
         :: -> anisotropic XC          0.002497222730 Eh    ::
         :: -> dispersion             -0.010399564203 Eh    ::
         :: repulsion energy           0.314775662422 Eh    ::
         :: add. restraining           0.000000000000 Eh    ::
         :: total charge               0.000000000000 e     ::
         :::::::::::::::::::::::::::::::::::::::::::::::::::::

           ------------------------------------------------- 
          |                Numerical Hessian                |
           ------------------------------------------------- 
step length          :   0.00500
SCC accuracy         :   0.30000
Hessian scale factor :   1.00000
frozen atoms in %    :   0.00000    0
RMS gradient         :   0.00033
estimated CPU  time      0.04 min
estimated wall time      0.01 min

writing file <hessian>.

 projected vibrational frequencies (cm⁻¹)
eigval :       -0.00    -0.00    -0.00    -0.00     0.00     0.00
eigval :       21.74    91.33   149.65   181.97   233.74   281.07
eigval :      379.53   409.04   485.45   602.13   630.59   722.49
eigval :      738.16   827.28   856.34   917.72   934.42   962.07
eigval :      994.85  1041.25  1061.79  1135.01  1163.63  1234.01
eigval :     1250.50  1289.72  1332.24  1359.51  1394.37  1445.36
eigval :     1476.99  1562.32  1733.56  2775.53  2861.87  3005.20
eigval :     3187.49  3197.13  3533.68
           -------------------------------------------------
          |                Property Printout                |
           -------------------------------------------------

    * Orbital Energies and Occupations

         #    Occupation            Energy/Eh            Energy/eV
      -------------------------------------------------------------
         1        2.0000           -0.7710287             -20.9808
       ...           ...                  ...                  ...
        12        2.0000           -0.5767787             -15.6949
        13        2.0000           -0.5560029             -15.1296
        14        2.0000           -0.5469267             -14.8826
        15        2.0000           -0.5360258             -14.5860
        16        2.0000           -0.5269963             -14.3403
        17        2.0000           -0.5071724             -13.8009
        18        2.0000           -0.5003400             -13.6149
        19        2.0000           -0.4964123             -13.5081
        20        2.0000           -0.4821776             -13.1207
        21        2.0000           -0.4564538             -12.4207
        22        2.0000           -0.4380000             -11.9186
        23        2.0000           -0.4205472             -11.4437
        24        2.0000           -0.4114494             -11.1961 (HOMO)
        25                         -0.3001879              -8.1685 (LUMO)
        26                         -0.2171882              -5.9100
        27                         -0.1654886              -4.5032
        28                          0.0296133               0.8058
        29                          0.0507852               1.3819
        30                          0.0815425               2.2189
        31                          0.0927004               2.5225
        32                          0.1124566               3.0601
        33                          0.1415289               3.8512
        34                          0.1613506               4.3906
        35                          0.1916718               5.2157
       ...                                ...                  ...
        42                          0.6859617              18.6660
      -------------------------------------------------------------
                  HL-Gap            0.1112615 Eh            3.0276 eV
             Fermi-level           -0.3558187 Eh           -9.6823 eV

     #   Z          covCN         q      C6AA      α(0)
     1   6 C        3.009    -0.064    29.563     8.919
     2   6 C        3.099     0.113    25.402     8.259
     3   8 O        1.728    -0.186    17.104     5.584
     4   6 C        3.095     0.087    25.961     8.351
     5   6 C        3.016    -0.037    28.899     8.818
     6   6 C        2.758     0.198    23.775     7.985
     7   8 O        0.857    -0.332    20.370     6.051
     8   6 C        3.676     0.072    19.600     6.343
     9   8 O        1.655    -0.426    21.353     6.238
    10   1 H        0.926     0.057     2.231     2.336
    11   1 H        0.926     0.071     2.074     2.252
    12   1 H        0.922     0.030     2.588     2.516
    13   1 H        0.924     0.070     2.081     2.256
    14   1 H        0.923     0.046     2.367     2.406
    15   1 H        0.805     0.300     0.722     1.334

 Mol. C6AA /au·bohr⁶  :       2676.457689
 Mol. C8AA /au·bohr⁸  :      62842.589300
 Mol. α(0) /au        :         79.649464


Wiberg/Mayer (AO) data.
largest (>0.10) Wiberg bond orders for each atom

 ---------------------------------------------------------------------------
     #   Z sym  total        # sym  WBO       # sym  WBO       # sym  WBO
 ---------------------------------------------------------------------------
     1   6 C    3.983 --     2 C    1.522     5 C    1.351    10 H    0.973
     2   6 C    3.916 --     1 C    1.522     3 O    1.151     8 C    0.999
                             4 C    0.124
     3   8 O    2.443 --     2 C    1.151     4 C    1.086
     4   6 C    3.904 --     5 C    1.479     6 C    1.101     3 O    1.086
                             2 C    0.124
     5   6 C    3.987 --     4 C    1.479     1 C    1.351    11 H    0.971
     6   6 C    3.942 --     7 O    1.837     4 C    1.101    12 H    0.929
     7   8 O    2.074 --     6 C    1.837
     8   6 C    3.961 --     9 O    1.000     2 C    0.999    13 H    0.969
                            14 H    0.955
     9   8 O    1.968 --     8 C    1.000    15 H    0.896
    10   1 H    0.996 --     1 C    0.973
    11   1 H    0.995 --     5 C    0.971
    12   1 H    0.999 --     6 C    0.929
    13   1 H    0.995 --     8 C    0.969
    14   1 H    0.997 --     8 C    0.955
    15   1 H    0.910 --     9 O    0.896
 ---------------------------------------------------------------------------

Topologies differ in total number of bonds
Writing topology from bond orders to xtbtopo.mol

molecular dipole:
                 x           y           z       tot (Debye)
 q only:       -0.963      -0.524      -0.094
   full:       -1.038      -0.414      -0.275       2.925
molecular quadrupole (traceless):
                xx          xy          yy          xz          yz          zz
 q only:      -10.937      -4.481       7.925       5.489      -0.491       3.011
  q+dip:      -15.394      -5.646      11.420       7.981      -2.652       3.974
   full:      -16.069      -5.538      10.949       7.451      -0.803       5.120

           -------------------------------------------------
          |               Frequency Printout                |
           -------------------------------------------------
 projected vibrational frequencies (cm⁻¹)
eigval :       -0.00    -0.00    -0.00    -0.00     0.00     0.00
eigval :       21.74    91.33   149.65   181.97   233.74   281.07
eigval :      379.53   409.04   485.45   602.13   630.59   722.49
eigval :      738.16   827.28   856.34   917.72   934.42   962.07
eigval :      994.85  1041.25  1061.79  1135.01  1163.63  1234.01
eigval :     1250.50  1289.72  1332.24  1359.51  1394.37  1445.36
eigval :     1476.99  1562.32  1733.56  2775.53  2861.87  3005.20
eigval :     3187.49  3197.13  3533.68
 reduced masses (amu)
   1: 12.93   2: 12.60   3: 12.34   4: 13.06   5: 12.97   6: 13.18   7: 11.28   8: 14.55
   9: 11.72  10: 12.53  11:  9.04  12:  8.65  13:  3.73  14: 12.29  15: 12.94  16: 10.77
  17: 12.06  18: 11.62  19: 11.07  20:  3.01  21:  3.70  22:  6.21  23:  5.92  24: 10.79
  25: 10.79  26:  3.88  27: 12.18  28:  3.39  29:  5.40  30: 10.71  31: 11.17  32:  3.22
  33:  3.64  34:  7.04  35:  8.58  36:  1.89  37: 11.72  38: 11.50  39: 13.44  40:  1.69
  41:  1.71  42:  1.72  43:  1.85  44:  1.96  45:  1.87
 IR intensities (km·mol⁻¹)
   1:  0.20   2:  0.74   3:  0.33   4:  0.09   5:  0.01   6:  0.35   7:  4.00   8:  6.32
   9:  6.60  10:  2.76  11:  9.34  12: 30.41  13:160.07  14: 19.17  15:  6.36  16:  0.28
  17:  3.10  18: 13.54  19: 42.64  20: 15.20  21:  0.02  22:  0.38  23: 29.08  24:  8.66
  25:  4.62  26: 32.64  27: 91.93  28: 24.92  29: 11.19  30: 29.72  31:104.74  32: 17.41
  33: 94.69  34: 15.59  35: 35.03  36:  1.05  37:159.36  38: 24.00  39:479.23  40:103.96
  41: 42.67  42:  8.25  43:  4.63  44:  2.12  45: 10.37
 Raman intensities (Ä⁴*amu⁻¹)
   1:  0.00   2:  0.00   3:  0.00   4:  0.00   5:  0.00   6:  0.00   7:  0.00   8:  0.00
   9:  0.00  10:  0.00  11:  0.00  12:  0.00  13:  0.00  14:  0.00  15:  0.00  16:  0.00
  17:  0.00  18:  0.00  19:  0.00  20:  0.00  21:  0.00  22:  0.00  23:  0.00  24:  0.00
  25:  0.00  26:  0.00  27:  0.00  28:  0.00  29:  0.00  30:  0.00  31:  0.00  32:  0.00
  33:  0.00  34:  0.00  35:  0.00  36:  0.00  37:  0.00  38:  0.00  39:  0.00  40:  0.00
  41:  0.00  42:  0.00  43:  0.00  44:  0.00  45:  0.00
 output can be read by thermo (or use thermo option).
 writing <g98.out> molden fake output.
 recommended (thermochemical) frequency scaling factor: 1.0
           -------------------------------------------------
          |             Thermodynamic Functions             |
           -------------------------------------------------

Molecule has no symmetry elements
It seems to be the C1 point group
c1  symmetry found (for desy threshold:  0.10E+00) used in thermo

          ...................................................
          :                      SETUP                      :
          :.................................................:
          :  # frequencies                          39      :
          :  # imaginary freq.                       0      :
          :  linear?                             false      :
          :  only rotor calc.                    false      :
          :  symmetry                               c1      :
          :  rotational number                       1      :
          :  scaling factor                  1.0000000      :
          :  rotor cutoff                   50.0000000 cm⁻¹ :
          :  imag. cutoff                  -20.0000000 cm⁻¹ :
          :.................................................:

    mode    ω/cm⁻¹     T·S(HO)/kcal·mol⁻¹    T·S(FR)/kcal·mol⁻¹   T·S(vib)
   ------------------------------------------------------------------------
       1     21.74    -1.92870 (  3.45%)    -1.30280 ( 96.55%)    -1.32438
       2     91.33    -1.08271 ( 91.76%)    -0.87796 (  8.24%)    -1.06583
       3    149.65    -0.79803 ( 98.77%)    -0.73170 (  1.23%)    -0.79722
       4    181.97    -0.68817 ( 99.43%)    -0.67380 (  0.57%)    -0.68809
       5    233.74    -0.55159 ( 99.79%)    -0.59964 (  0.21%)    -0.55169
       6    281.07    -0.45532 ( 99.90%)    -0.54503 (  0.10%)    -0.45541
   ------------------------------------------------------------------------

   temp. (K)  partition function   enthalpy   heat capacity  entropy
                                   cal/mol     cal/K/mol   cal/K/mol   J/K/mol
 298.15  VIB   376.                 3578.356     23.110     21.700
         ROT  0.477E+06              888.752      2.981     28.966
         INT  0.179E+09             4467.109     26.090     50.665
         TR   0.137E+28             1481.254      4.968     40.391
         TOT                        5948.3628    31.0586    91.0566   380.9808

       T/K    H(0)-H(T)+PV         H(T)/Eh          T*S/Eh         G(T)/Eh
   ------------------------------------------------------------------------
    298.15    0.947932E-02    0.117603E+00    0.432639E-01    0.743389E-01
   ------------------------------------------------------------------------

         :::::::::::::::::::::::::::::::::::::::::::::::::::::
         ::                  THERMODYNAMIC                  ::
         :::::::::::::::::::::::::::::::::::::::::::::::::::::
         :: total free energy         -27.990291727202 Eh   ::
         ::.................................................::
         :: total energy              -28.064630641700 Eh   ::
         :: zero point energy           0.108123522233 Eh   ::
         :: G(RRHO) w/o ZPVE           -0.033784607735 Eh   ::
         :: G(RRHO) contrib.            0.074338914498 Eh   ::
         :::::::::::::::::::::::::::::::::::::::::::::::::::::

           -------------------------------------------------
          | TOTAL ENERGY              -28.064630641700 Eh   |
          | TOTAL ENTHALPY            -27.947027800006 Eh   |
          | TOTAL FREE ENERGY         -27.990291727202 Eh   |
          | GRADIENT NORM               0.000328638215 Eh/α |
          | HOMO-LUMO GAP               3.027578851904 eV   |
           -------------------------------------------------

------------------------------------------------------------------------
 * finished run on 2026/09/17 at 00:40:21.052     
------------------------------------------------------------------------
 total:
 * wall-time:     0 d,  0 h,  0 min,  0.232 sec
 *  cpu-time:     0 d,  0 h,  0 min,  0.859 sec
 * ratio c/w:     3.704 speedup
 SCF:
 * wall-time:     0 d,  0 h,  0 min,  0.008 sec
 *  cpu-time:     0 d,  0 h,  0 min,  0.062 sec
 * ratio c/w:     7.813 speedup
 analytical hessian:
 * wall-time:     0 d,  0 h,  0 min,  0.185 sec
 *  cpu-time:     0 d,  0 h,  0 min,  0.750 sec
 * ratio c/w:     4.054 speedup

