16

C     -2.382108    0.672370   -0.377436
C     -1.183781   -0.239328   -0.363720
O     -1.007000   -1.074772   -1.249756
C     -0.247187   -0.107903    0.823116
C      1.121440   -0.715684    0.539925
C      1.880092    0.108083   -0.463861
O      1.592417    1.223706   -0.864313
O      3.001356   -0.508218   -0.883039
H     -2.999212    0.478367    0.503193
H     -2.976648    0.486617   -1.276211
H     -2.050381    1.713563   -0.384842
H     -0.715607   -0.623847    1.668219
H     -0.150626    0.952872    1.079951
H      1.023199   -1.738491    0.160659
H      1.707991   -0.737241    1.464679
H      3.386056    0.109905   -1.538975
