      -----------------------------------------------------------      
     |                   =====================                   |     
     |                           x T B                           |     
     |                   =====================                   |     
     |                         S. Grimme                         |     
     |          Mulliken Center for Theoretical Chemistry        |     
     |                    University of Bonn                     |     
      -----------------------------------------------------------      

   * xtb version 6.7.1pre (5071a88) compiled by 'Marcel@Raven' on 2024-07-23

   xtb is free software: you can redistribute it and/or modify it under
   the terms of the GNU Lesser General Public License as published by
   the Free Software Foundation, either version 3 of the License, or
   (at your option) any later version.
   
   xtb is distributed in the hope that it will be useful,
   but WITHOUT ANY WARRANTY; without even the implied warranty of
   MERCHANTABILITY or FITNESS FOR A PARTICULAR PURPOSE.  See the
   GNU Lesser General Public License for more details.
   
   Cite this work as:
   * C. Bannwarth, E. Caldeweyher, S. Ehlert, A. Hansen, P. Pracht,
     J. Seibert, S. Spicher, S. Grimme, WIREs Comput. Mol. Sci., 2020, 11,
     e01493. DOI: 10.1002/wcms.1493
   
   for GFN2-xTB:
   * C. Bannwarth, S. Ehlert and S. Grimme., J. Chem. Theory Comput., 2019,
     15, 1652-1671. DOI: 10.1021/acs.jctc.8b01176
   for GFN1-xTB:
   * S. Grimme, C. Bannwarth, P. Shushkov, J. Chem. Theory Comput., 2017,
     13, 1989-2009. DOI: 10.1021/acs.jctc.7b00118
   for GFN0-xTB:
   * P. Pracht, E. Caldeweyher, S. Ehlert, S. Grimme, ChemRxiv, 2019, preprint.
     DOI: 10.26434/chemrxiv.8326202.v1
   for GFN-FF:
   * S. Spicher and S. Grimme, Angew. Chem. Int. Ed., 2020, 59, 15665-15673.
     DOI: 10.1002/anie.202004239
   
   for ALPB and GBSA implicit solvation:
   * S. Ehlert, M. Stahn, S. Spicher, S. Grimme, J. Chem. Theory Comput.,
     2021, 17, 4250-4261. DOI: 10.1021/acs.jctc.1c00471
   
   for ddCOSMO and CPCM-X implicit solvation:
   * M. Stahn, S. Ehlert, S. Grimme, J. Phys. Chem. A,
     2023, XX, XXXX-XXXX. DOI: 10.1021/acs.jpca.3c04382
   
   for DFT-D4:
   * E. Caldeweyher, C. Bannwarth and S. Grimme, J. Chem. Phys., 2017,
     147, 034112. DOI: 10.1063/1.4993215
   * E. Caldeweyher, S. Ehlert, A. Hansen, H. Neugebauer, S. Spicher,
     C. Bannwarth and S. Grimme, J. Chem. Phys., 2019, 150, 154122.
     DOI: 10.1063/1.5090222
   * E. Caldeweyher, J.-M. Mewes, S. Ehlert and S. Grimme, Phys. Chem. Chem. Phys.
     2020, 22, 8499-8512. DOI: 10.1039/D0CP00502A
   
   for sTDA-xTB:
   * S. Grimme and C. Bannwarth, J. Chem. Phys., 2016, 145, 054103.
     DOI: 10.1063/1.4959605
   
   in the mass-spec context:
   * V. Asgeirsson, C. Bauer and S. Grimme, Chem. Sci., 2017, 8, 4879.
     DOI: 10.1039/c7sc00601b
   * J. Koopman and S. Grimme, ACS Omega 2019, 4, 12, 15120-15133.
     DOI: 10.1021/acsomega.9b02011
   
   for metadynamics refer to:
   * S. Grimme, J. Chem. Theory Comput., 2019, 155, 2847-2862
     DOI: 10.1021/acs.jctc.9b00143
   
   for SPH calculations refer to:
   * S. Spicher and S. Grimme, J. Chem. Theory Comput., 2021, 17, 1701-1714
     DOI: 10.1021/acs.jctc.0c01306
   
   for ONIOM refer to:
   * C. Plett, A. Katbashev, S. Ehlert, S. Grimme, M. Bursch,
     Phys. Chem. Chem. Phys., 2023, 25, 17860-17868. DOI: 10.1039/D3CP02178E
   
   for DIPRO refer to:
   * J. Kohn, N. Gildemeister, S. Grimme, D. Fazzi, A. Hansen,
     J. Chem. Phys., 2023, just accepted.
   
   for PTB refer to:
   * S. Grimme, M. Mueller, A. Hansen, J. Chem. Phys., 2023, 158, 124111.
     DOI: 10.1063/5.0137838
   
   with help from (in alphabetical order)
   P. Atkinson, C. Bannwarth, F. Bohle, G. Brandenburg, E. Caldeweyher
   M. Checinski, S. Dohm, S. Ehlert, S. Ehrlich, I. Gerasimov, C. Hölzer
   A. Katbashev, J. Kohn, J. Koopman, C. Lavigne, S. Lehtola, F. März, M. Müller,
   F. Musil, H. Neugebauer, J. Pisarek, C. Plett, P. Pracht, F. Pultar,
   J. Seibert, P. Shushkov, S. Spicher, M. Stahn, M. Steiner, T. Strunk,
   J. Stückrath, T. Rose, and J. Unsleber
   
 * started run on 2026/09/17 at 00:40:21.324     
   ID    Z sym.   atoms
    1    6 C      1, 2, 4-6
    2    8 O      3, 7, 8
    3    1 H      9-16

           -------------------------------------------------
          |                Calculation Setup                |
           -------------------------------------------------

          program call               : C:\ORCA_6.1.1\xtb-6.7.1pre\xtb.exe input.xyz --gfn 2 --chrg 0 --uhf 0 --opt tight --json
          coordinate file            : input.xyz
          omp threads                :                     4


           -------------------------------------------------
          |                 G F N 2 - x T B                 |
           -------------------------------------------------

        Reference                      10.1021/acs.jctc.8b01176
      * Hamiltonian:
        H0-scaling (s, p, d)           1.850000    2.230000    2.230000
        zeta-weighting                 0.500000
      * Dispersion:
        s8                             2.700000
        a1                             0.520000
        a2                             5.000000
        s9                             5.000000
      * Repulsion:
        kExp                           1.500000    1.000000
        rExp                           1.000000
      * Coulomb:
        alpha                          2.000000
        third order                    shell-resolved
        anisotropic                    true
        a3                             3.000000
        a5                             4.000000
        cn-shift                       1.200000
        cn-exp                         4.000000
        max-rad                        5.000000


          ...................................................
          :                      SETUP                      :
          :.................................................:
          :  # basis functions                  40          :
          :  # atomic orbitals                  40          :
          :  # shells                           24          :
          :  # electrons                        46          :
          :  max. iterations                   250          :
          :  Hamiltonian                  GFN2-xTB          :
          :  restarted?                      false          :
          :  GBSA solvation                  false          :
          :  PC potential                    false          :
          :  electronic temp.          300.0000000     K    :
          :  accuracy                    1.0000000          :
          :  -> integral cutoff          0.2500000E+02      :
          :  -> integral neglect         0.1000000E-07      :
          :  -> SCF convergence          0.1000000E-05 Eh   :
          :  -> wf. convergence          0.1000000E-03 e    :
          :  Broyden damping             0.4000000          :
          :  net charge                          0          :
          :  unpaired electrons                  0          :
          ...................................................

 iter      E             dE          RMSdq      gap      omega  full diag
   1    -27.1689502 -0.271690E+02  0.446E+00    4.66       0.0  T
   2    -27.2345471 -0.655969E-01  0.220E+00    3.63       1.0  T
   3    -27.2427663 -0.821917E-02  0.146E+00    4.16       1.0  T
   4    -27.2481054 -0.533915E-02  0.191E-01    3.86       1.0  T
   5    -27.2484750 -0.369565E-03  0.876E-02    3.93       1.0  T
   6    -27.2484886 -0.135762E-04  0.391E-02    3.93       1.0  T
   7    -27.2484957 -0.715905E-05  0.101E-02    3.92       2.5  T
   8    -27.2484963 -0.594535E-06  0.343E-03    3.92       7.3  T
   9    -27.2484963 -0.703787E-08  0.164E-03    3.92      15.3  T
  10    -27.2484963 -0.146119E-07  0.433E-04    3.92      57.8  T
  11    -27.2484963 -0.354810E-09  0.172E-04    3.92     145.1  T

   *** convergence criteria satisfied after 11 iterations ***

         #    Occupation            Energy/Eh            Energy/eV
      -------------------------------------------------------------
         1        2.0000           -0.7477666             -20.3478
       ...           ...                  ...                  ...
        17        2.0000           -0.4855484             -13.2124
        18        2.0000           -0.4778024             -13.0017
        19        2.0000           -0.4765479             -12.9675
        20        2.0000           -0.4698991             -12.7866
        21        2.0000           -0.4650331             -12.6542
        22        2.0000           -0.4287692             -11.6674
        23        2.0000           -0.4015115             -10.9257 (HOMO)
        24                         -0.2573819              -7.0037 (LUMO)
        25                         -0.2434423              -6.6244
        26                          0.0429585               1.1690
        27                          0.0598260               1.6279
        28                          0.1105284               3.0076
       ...                                ...                  ...
        40                          0.5820764              15.8391
      -------------------------------------------------------------
                  HL-Gap            0.1441296 Eh            3.9220 eV
             Fermi-level           -0.3294467 Eh           -8.9647 eV

 SCC (total)                   0 d,  0 h,  0 min,  0.007 sec
 SCC setup                      ...        0 min,  0.001 sec ( 14.285%)
 Dispersion                     ...        0 min,  0.000 sec (  0.000%)
 classical contributions        ...        0 min,  0.000 sec (  0.000%)
 integral evaluation            ...        0 min,  0.000 sec (  0.000%)
 iterations                     ...        0 min,  0.004 sec ( 57.146%)
 molecular gradient             ...        0 min,  0.002 sec ( 28.569%)
 printout                       ...        0 min,  0.000 sec (  0.000%)

         :::::::::::::::::::::::::::::::::::::::::::::::::::::
         ::                     SUMMARY                     ::
         :::::::::::::::::::::::::::::::::::::::::::::::::::::
         :: total energy             -26.983335767086 Eh    ::
         :: gradient norm              0.066705743944 Eh/a0 ::
         :: HOMO-LUMO gap              3.921965759737 eV    ::
         ::.................................................::
         :: SCC energy               -27.248475167713 Eh    ::
         :: -> isotropic ES            0.077581939242 Eh    ::
         :: -> anisotropic ES          0.000774474617 Eh    ::
         :: -> anisotropic XC          0.004697569362 Eh    ::
         :: -> dispersion             -0.009808940818 Eh    ::
         :: repulsion energy           0.265139400627 Eh    ::
         :: add. restraining           0.000000000000 Eh    ::
         :: total charge              -0.000000000000 e     ::
         :::::::::::::::::::::::::::::::::::::::::::::::::::::

      ----------------------------------------------------------- 
     |                   =====================                   |
     |                        A N C O P T                        |
     |                   =====================                   |
     |               Approximate Normal Coordinate               |
     |                Rational Function Optimizer                |
      ----------------------------------------------------------- 
      ----------------------------------------------------------- 
     |                   =====================                   |
     |                        A N C O P T                        |
     |                   =====================                   |
     |               Approximate Normal Coordinate               |
     |                Rational Function Optimizer                |
      ----------------------------------------------------------- 

          ...................................................
          :                      SETUP                      :
          :.................................................:
          :   optimization level             tight          :
          :   max. optcycles                   200          :
          :   ANC micro-cycles                  20          :
          :   degrees of freedom                42          :
          :.................................................:
          :   RF solver                   davidson          :
          :   write xtbopt.log                true          :
          :   linear?                        false          :
          :   energy convergence         0.1000000E-05 Eh   :
          :   grad. convergence          0.8000000E-03 Eh/α :
          :   maxmium RF displ.          1.0000000          :
          :   Hlow (freq-cutoff)         0.1000000E-01      :
          :   Hmax (freq-cutoff)         5.0000000          :
          :   S6 in model hess.         20.0000000          :
          ...................................................

generating ANC from exact Hessian ...
Using Lindh-Hessian (1995)
 Shifting diagonal of input Hessian by   8.054739429466549E-003
 Lowest  eigenvalues of input Hessian
    0.000000    0.000000    0.000000    0.000000    0.000000    0.000000
    0.010000    0.011479    0.013446    0.018052    0.020826    0.023383
    0.030678    0.042501    0.053337    0.062080    0.064334    0.066456
 Highest eigenvalues
    1.197906    1.267387    1.388335    1.713062    2.040984    2.272873
 

........................................................................
.............................. CYCLE    1 ..............................
........................................................................

 iter      E             dE          RMSdq      gap      omega  full diag
   1    -27.2484963 -0.272485E+02  0.397E-05    3.92       0.0  T
   2    -27.2484963 -0.110916E-10  0.207E-05    3.92    1206.8  T
   3    -27.2484963 -0.343192E-11  0.109E-05    3.92    2291.5  T
     SCC iter.                  ...        0 min,  0.001 sec
     gradient                   ...        0 min,  0.001 sec
 * total energy  :   -26.9833358 Eh     change       -0.2924239E-10 Eh
   gradient norm :     0.0667067 Eh/α   predicted     0.0000000E+00 (-100.00%)
   displ. norm   :     0.1140744 α      lambda       -0.3815651E-02
   maximum displ.:     0.0501790 α      in ANC's #7, #21, #10, ...

........................................................................
.............................. CYCLE    2 ..............................
........................................................................

 iter      E             dE          RMSdq      gap      omega  full diag
   1    -27.2653745 -0.272654E+02  0.137E-01    4.08       0.0  T
   2    -27.2654890 -0.114475E-03  0.821E-02    4.06       1.0  T
   3    -27.2654937 -0.475563E-05  0.450E-02    4.07       1.0  T
   4    -27.2654944 -0.675574E-06  0.110E-02    4.06       2.3  T
   5    -27.2654953 -0.944861E-06  0.374E-03    4.07       6.7  T
   6    -27.2654954 -0.649717E-07  0.140E-03    4.06      17.8  T
   7    -27.2654954 -0.437827E-08  0.725E-04    4.06      34.5  T
   8    -27.2654954 -0.101942E-08  0.204E-04    4.06     122.8  T
     SCC iter.                  ...        0 min,  0.002 sec
     gradient                   ...        0 min,  0.001 sec
 * total energy  :   -26.9857990 Eh     change       -0.2463197E-02 Eh
   gradient norm :     0.0181379 Eh/α   predicted    -0.1932653E-02 ( -21.54%)
   displ. norm   :     0.1065851 α      lambda       -0.8188577E-03
   maximum displ.:     0.0543870 α      in ANC's #7, #21, #4, ...

........................................................................
.............................. CYCLE    3 ..............................
........................................................................

 iter      E             dE          RMSdq      gap      omega  full diag
   1    -27.2708639 -0.272709E+02  0.675E-02    4.12       0.0  T
   2    -27.2708906 -0.266776E-04  0.379E-02    4.11       1.0  T
   3    -27.2708916 -0.104276E-05  0.206E-02    4.12       1.2  T
   4    -27.2708918 -0.158178E-06  0.471E-03    4.11       5.3  T
   5    -27.2708919 -0.140762E-06  0.181E-03    4.11      13.8  T
   6    -27.2708919 -0.125762E-07  0.664E-04    4.11      37.6  T
   7    -27.2708919 -0.601556E-09  0.327E-04    4.11      76.4  T
     SCC iter.                  ...        0 min,  0.002 sec
     gradient                   ...        0 min,  0.001 sec
 * total energy  :   -26.9862975 Eh     change       -0.4985585E-03 Eh
   gradient norm :     0.0078773 Eh/α   predicted    -0.4140801E-03 ( -16.94%)
   displ. norm   :     0.0754517 α      lambda       -0.2054460E-03
   maximum displ.:     0.0353455 α      in ANC's #1, #21, #4, ...

........................................................................
.............................. CYCLE    4 ..............................
........................................................................

 iter      E             dE          RMSdq      gap      omega  full diag
   1    -27.2708237 -0.272708E+02  0.382E-02    4.11       0.0  T
   2    -27.2708248 -0.106949E-05  0.229E-02    4.11       1.1  T
   3    -27.2708247  0.889573E-07  0.645E-03    4.11       3.9  T
   4    -27.2708250 -0.291251E-06  0.174E-03    4.11      14.4  T
   5    -27.2708250 -0.815776E-08  0.856E-04    4.11      29.2  T
   6    -27.2708250 -0.151189E-08  0.266E-04    4.11      94.0  T
     SCC iter.                  ...        0 min,  0.002 sec
     gradient                   ...        0 min,  0.001 sec
 * total energy  :   -26.9864320 Eh     change       -0.1344953E-03 Eh
   gradient norm :     0.0055542 Eh/α   predicted    -0.1033067E-03 ( -23.19%)
   displ. norm   :     0.0681286 α      lambda       -0.8390025E-04
   maximum displ.:     0.0463504 α      in ANC's #4, #1, #21, ...

........................................................................
.............................. CYCLE    5 ..............................
........................................................................

 iter      E             dE          RMSdq      gap      omega  full diag
   1    -27.2700978 -0.272701E+02  0.306E-02    4.10       0.0  T
   2    -27.2700986 -0.759650E-06  0.182E-02    4.10       1.4  T
   3    -27.2700985  0.229378E-07  0.512E-03    4.10       4.9  T
   4    -27.2700987 -0.138824E-06  0.129E-03    4.10      19.4  T
   5    -27.2700987 -0.510338E-08  0.620E-04    4.10      40.3  T
   6    -27.2700987 -0.572822E-09  0.203E-04    4.10     123.5  T
     SCC iter.                  ...        0 min,  0.002 sec
     gradient                   ...        0 min,  0.001 sec
 * total energy  :   -26.9864825 Eh     change       -0.5045268E-04 Eh
   gradient norm :     0.0019566 Eh/α   predicted    -0.4214625E-04 ( -16.46%)
   displ. norm   :     0.0834842 α      lambda       -0.3153145E-04
   maximum displ.:     0.0580339 α      in ANC's #4, #1, #2, ...

........................................................................
.............................. CYCLE    6 ..............................
........................................................................

 iter      E             dE          RMSdq      gap      omega  full diag
   1    -27.2695791 -0.272696E+02  0.310E-02    4.09       0.0  T
   2    -27.2695801 -0.973332E-06  0.184E-02    4.10       1.4  T
   3    -27.2695801 -0.605717E-08  0.485E-03    4.10       5.2  T
   4    -27.2695802 -0.577625E-07  0.105E-03    4.10      23.8  T
   5    -27.2695802 -0.574238E-08  0.432E-04    4.10      57.9  T
   6    -27.2695802 -0.544862E-09  0.145E-04    4.10     172.8  T
     SCC iter.                  ...        0 min,  0.003 sec
     gradient                   ...        0 min,  0.000 sec
 * total energy  :   -26.9865151 Eh     change       -0.3259295E-04 Eh
   gradient norm :     0.0030536 Eh/α   predicted    -0.1581496E-04 ( -51.48%)
   displ. norm   :     0.1098448 α      lambda       -0.4983493E-04
   maximum displ.:     0.0786386 α      in ANC's #4, #2, #6, ...

........................................................................
.............................. CYCLE    7 ..............................
........................................................................

 iter      E             dE          RMSdq      gap      omega  full diag
   1    -27.2693665 -0.272694E+02  0.323E-02    4.09       0.0  T
   2    -27.2693670 -0.497221E-06  0.193E-02    4.09       1.3  T
   3    -27.2693670  0.559272E-07  0.406E-03    4.09       6.2  T
   4    -27.2693671 -0.108554E-06  0.104E-03    4.09      24.1  T
   5    -27.2693671 -0.663616E-08  0.424E-04    4.09      58.9  T
   6    -27.2693671 -0.387420E-09  0.135E-04    4.09     185.2  T
     SCC iter.                  ...        0 min,  0.001 sec
     gradient                   ...        0 min,  0.001 sec
 * total energy  :   -26.9865574 Eh     change       -0.4236516E-04 Eh
   gradient norm :     0.0044664 Eh/α   predicted    -0.2521588E-04 ( -40.48%)
   displ. norm   :     0.3014489 α      lambda       -0.1238199E-03
   maximum displ.:     0.2167438 α      in ANC's #4, #2, #1, ...

........................................................................
.............................. CYCLE    8 ..............................
........................................................................

 iter      E             dE          RMSdq      gap      omega  full diag
   1    -27.2678629 -0.272679E+02  0.881E-02    4.09       0.0  T
   2    -27.2678659 -0.293728E-05  0.525E-02    4.09       1.0  T
   3    -27.2678656  0.290320E-06  0.948E-03    4.09       2.6  T
   4    -27.2678662 -0.606032E-06  0.266E-03    4.09       9.4  T
   5    -27.2678662 -0.426503E-07  0.122E-03    4.09      20.5  T
   6    -27.2678662 -0.233505E-08  0.281E-04    4.09      88.9  T
   7    -27.2678662 -0.158025E-09  0.144E-04    4.09     173.7  T
     SCC iter.                  ...        0 min,  0.002 sec
     gradient                   ...        0 min,  0.001 sec
 * total energy  :   -26.9866078 Eh     change       -0.5033435E-04 Eh
   gradient norm :     0.0085617 Eh/α   predicted    -0.6752900E-04 (  34.16%)
   displ. norm   :     0.0371064 α      lambda       -0.8608892E-04
   maximum displ.:     0.0221062 α      in ANC's #2, #4, #6, ...

........................................................................
.............................. CYCLE    9 ..............................
........................................................................

 iter      E             dE          RMSdq      gap      omega  full diag
   1    -27.2695840 -0.272696E+02  0.228E-02    4.10       0.0  T
   2    -27.2695850 -0.977772E-06  0.124E-02    4.10       2.0  T
   3    -27.2695850 -0.382854E-07  0.480E-03    4.10       5.2  T
   4    -27.2695850 -0.168926E-07  0.927E-04    4.10      27.0  T
   5    -27.2695850 -0.154719E-08  0.509E-04    4.10      49.1  T
     SCC iter.                  ...        0 min,  0.002 sec
     gradient                   ...        0 min,  0.001 sec
 * total energy  :   -26.9866603 Eh     change       -0.5249576E-04 Eh
   gradient norm :     0.0044358 Eh/α   predicted    -0.4310231E-04 ( -17.89%)
   displ. norm   :     0.1283867 α      lambda       -0.5960609E-04
   maximum displ.:     0.0941748 α      in ANC's #4, #1, #2, ...

........................................................................
.............................. CYCLE   10 ..............................
........................................................................

 iter      E             dE          RMSdq      gap      omega  full diag
   1    -27.2701538 -0.272702E+02  0.385E-02    4.11       0.0  T
   2    -27.2701542 -0.320369E-06  0.229E-02    4.10       1.1  T
   3    -27.2701541  0.821119E-07  0.381E-03    4.11       6.6  T
   4    -27.2701542 -0.143696E-06  0.100E-03    4.10      25.0  T
   5    -27.2701542 -0.415922E-08  0.492E-04    4.10      50.8  T
     SCC iter.                  ...        0 min,  0.001 sec
     gradient                   ...        0 min,  0.001 sec
 * total energy  :   -26.9867071 Eh     change       -0.4687776E-04 Eh
   gradient norm :     0.0020035 Eh/α   predicted    -0.3029453E-04 ( -35.38%)
   displ. norm   :     0.2366553 α      lambda       -0.6531602E-04
   maximum displ.:     0.1700572 α      in ANC's #4, #1, #2, ...

........................................................................
.............................. CYCLE   11 ..............................
........................................................................

 iter      E             dE          RMSdq      gap      omega  full diag
   1    -27.2694453 -0.272694E+02  0.700E-02    4.11       0.0  T
   2    -27.2694460 -0.717476E-06  0.418E-02    4.11       1.0  T
   3    -27.2694459  0.102739E-06  0.520E-03    4.11       4.8  T
   4    -27.2694462 -0.258890E-06  0.167E-03    4.11      15.0  T
   5    -27.2694462 -0.971680E-08  0.735E-04    4.11      34.0  T
   6    -27.2694462 -0.839851E-09  0.264E-04    4.11      94.8  T
     SCC iter.                  ...        0 min,  0.002 sec
     gradient                   ...        0 min,  0.001 sec
 * total energy  :   -26.9867382 Eh     change       -0.3102788E-04 Eh
   gradient norm :     0.0034067 Eh/α   predicted    -0.3448665E-04 (  11.15%)
   displ. norm   :     0.0233497 α      lambda       -0.2327434E-04
   maximum displ.:     0.0138171 α      in ANC's #6, #4, #1, ...

........................................................................
.............................. CYCLE   12 ..............................
........................................................................

 iter      E             dE          RMSdq      gap      omega  full diag
   1    -27.2704518 -0.272705E+02  0.151E-02    4.11       0.0  T
   2    -27.2704521 -0.302021E-06  0.832E-03    4.11       3.0  T
   3    -27.2704521 -0.993256E-08  0.271E-03    4.11       9.2  T
   4    -27.2704521 -0.821257E-08  0.557E-04    4.11      44.9  T
   5    -27.2704521 -0.906098E-09  0.316E-04    4.11      79.2  T
     SCC iter.                  ...        0 min,  0.001 sec
     gradient                   ...        0 min,  0.001 sec
 * total energy  :   -26.9867501 Eh     change       -0.1197368E-04 Eh
   gradient norm :     0.0017440 Eh/α   predicted    -0.1164392E-04 (  -2.75%)
   displ. norm   :     0.0832538 α      lambda       -0.7959434E-05
   maximum displ.:     0.0509042 α      in ANC's #1, #4, #2, ...

........................................................................
.............................. CYCLE   13 ..............................
........................................................................

 iter      E             dE          RMSdq      gap      omega  full diag
   1    -27.2704019 -0.272704E+02  0.284E-02    4.11       0.0  T
   2    -27.2704020 -0.129199E-06  0.169E-02    4.11       1.5  T
   3    -27.2704020  0.951926E-08  0.181E-03    4.11      13.8  T
   4    -27.2704020 -0.302892E-07  0.612E-04    4.11      40.9  T
   5    -27.2704020 -0.149040E-08  0.312E-04    4.11      80.1  T
     SCC iter.                  ...        0 min,  0.002 sec
     gradient                   ...        0 min,  0.001 sec
 * total energy  :   -26.9867593 Eh     change       -0.9117704E-05 Eh
   gradient norm :     0.0012386 Eh/α   predicted    -0.3994183E-05 ( -56.19%)
   displ. norm   :     0.1150445 α      lambda       -0.1086457E-04
   maximum displ.:     0.0707752 α      in ANC's #1, #2, #4, ...

........................................................................
.............................. CYCLE   14 ..............................
........................................................................

 iter      E             dE          RMSdq      gap      omega  full diag
   1    -27.2702101 -0.272702E+02  0.496E-02    4.11       0.0  T
   2    -27.2702107 -0.553771E-06  0.294E-02    4.11       1.0  T
   3    -27.2702106  0.490430E-07  0.357E-03    4.11       7.0  T
   4    -27.2702107 -0.104026E-06  0.113E-03    4.11      22.1  T
   5    -27.2702107 -0.859502E-08  0.530E-04    4.11      47.2  T
   6    -27.2702107 -0.300240E-09  0.194E-04    4.11     128.9  T
     SCC iter.                  ...        0 min,  0.002 sec
     gradient                   ...        0 min,  0.001 sec
 * total energy  :   -26.9867706 Eh     change       -0.1129981E-04 Eh
   gradient norm :     0.0009344 Eh/α   predicted    -0.5463329E-05 ( -51.65%)
   displ. norm   :     0.1352559 α      lambda       -0.1273578E-04
   maximum displ.:     0.0967558 α      in ANC's #2, #1, #6, ...

........................................................................
.............................. CYCLE   15 ..............................
........................................................................

 iter      E             dE          RMSdq      gap      omega  full diag
   1    -27.2703017 -0.272703E+02  0.754E-02    4.10       0.0  T
   2    -27.2703023 -0.555121E-06  0.445E-02    4.10       1.0  T
   3    -27.2703023 -0.606728E-07  0.275E-03    4.10       9.1  T
   4    -27.2703024 -0.476338E-07  0.137E-03    4.10      18.2  T
   5    -27.2703024 -0.587236E-08  0.707E-04    4.10      35.4  T
   6    -27.2703024 -0.115566E-08  0.261E-04    4.10      95.9  T
     SCC iter.                  ...        0 min,  0.002 sec
     gradient                   ...        0 min,  0.001 sec
 * total energy  :   -26.9867831 Eh     change       -0.1256686E-04 Eh
   gradient norm :     0.0023889 Eh/α   predicted    -0.6420659E-05 ( -48.91%)
   displ. norm   :     0.1300288 α      lambda       -0.1564880E-04
   maximum displ.:     0.0940484 α      in ANC's #2, #1, #6, ...

........................................................................
.............................. CYCLE   16 ..............................
........................................................................

 iter      E             dE          RMSdq      gap      omega  full diag
   1    -27.2700421 -0.272700E+02  0.767E-02    4.10       0.0  T
   2    -27.2700424 -0.308784E-06  0.452E-02    4.10       1.0  T
   3    -27.2700424 -0.519492E-07  0.264E-03    4.10       9.5  T
   4    -27.2700425 -0.522186E-07  0.132E-03    4.10      18.9  T
   5    -27.2700425 -0.417303E-08  0.651E-04    4.10      38.4  T
   6    -27.2700425 -0.860954E-09  0.201E-04    4.10     124.2  T
     SCC iter.                  ...        0 min,  0.001 sec
     gradient                   ...        0 min,  0.001 sec
 * total energy  :   -26.9867959 Eh     change       -0.1276004E-04 Eh
   gradient norm :     0.0027194 Eh/α   predicted    -0.7956263E-05 ( -37.65%)
   displ. norm   :     0.2495887 α      lambda       -0.3400113E-04
   maximum displ.:     0.1839635 α      in ANC's #2, #1, #8, ...

........................................................................
.............................. CYCLE   17 ..............................
........................................................................

 iter      E             dE          RMSdq      gap      omega  full diag
   1    -27.2694868 -0.272695E+02  0.166E-01    4.09       0.0  T
   2    -27.2694882 -0.146267E-05  0.977E-02    4.09       1.0  T
   3    -27.2694885 -0.265876E-06  0.593E-03    4.09       4.2  T
   4    -27.2694888 -0.262761E-06  0.284E-03    4.09       8.8  T
   5    -27.2694888 -0.149745E-07  0.120E-03    4.09      20.9  T
   6    -27.2694888 -0.231803E-08  0.442E-04    4.09      56.5  T
   7    -27.2694888 -0.280291E-09  0.126E-04    4.09     198.3  T
     SCC iter.                  ...        0 min,  0.001 sec
     gradient                   ...        0 min,  0.001 sec
 * total energy  :   -26.9868162 Eh     change       -0.2027274E-04 Eh
   gradient norm :     0.0049732 Eh/α   predicted    -0.1805922E-04 ( -10.92%)
   displ. norm   :     0.0798510 α      lambda       -0.2463416E-04
   maximum displ.:     0.0525060 α      in ANC's #2, #4, #1, ...

........................................................................
.............................. CYCLE   18 ..............................
........................................................................

 iter      E             dE          RMSdq      gap      omega  full diag
   1    -27.2700775 -0.272701E+02  0.556E-02    4.10       0.0  T
   2    -27.2700779 -0.341244E-06  0.327E-02    4.09       1.0  T
   3    -27.2700778  0.179119E-07  0.323E-03    4.10       7.7  T
   4    -27.2700779 -0.100290E-06  0.111E-03    4.09      22.5  T
   5    -27.2700779 -0.337142E-08  0.603E-04    4.10      41.4  T
   6    -27.2700779 -0.740201E-09  0.211E-04    4.09     118.8  T
     SCC iter.                  ...        0 min,  0.001 sec
     gradient                   ...        0 min,  0.001 sec
 * total energy  :   -26.9868349 Eh     change       -0.1877074E-04 Eh
   gradient norm :     0.0030055 Eh/α   predicted    -0.1239552E-04 ( -33.96%)
   displ. norm   :     0.3108725 α      lambda       -0.4299591E-04
   maximum displ.:     0.2279389 α      in ANC's #2, #1, #4, ...

........................................................................
.............................. CYCLE   19 ..............................
........................................................................

 iter      E             dE          RMSdq      gap      omega  full diag
   1    -27.2683758 -0.272684E+02  0.200E-01    4.09       0.0  T
   2    -27.2683788 -0.297714E-05  0.118E-01    4.09       1.0  T
   3    -27.2683788 -0.194360E-07  0.981E-03    4.09       2.5  T
   4    -27.2683797 -0.938923E-06  0.369E-03    4.09       6.8  T
   5    -27.2683798 -0.217738E-07  0.171E-03    4.09      14.7  T
   6    -27.2683798 -0.456559E-08  0.532E-04    4.09      47.0  T
   7    -27.2683798 -0.441169E-09  0.151E-04    4.09     165.9  T
     SCC iter.                  ...        0 min,  0.002 sec
     gradient                   ...        0 min,  0.001 sec
 * total energy  :   -26.9868413 Eh     change       -0.6410297E-05 Eh
   gradient norm :     0.0045046 Eh/α   predicted    -0.2357615E-04 ( 267.79%)
   displ. norm   :     0.1000761 α      lambda       -0.5750933E-04
   maximum displ.:     0.0596490 α      in ANC's #2, #1, #4, ...

........................................................................
.............................. CYCLE   20 ..............................
........................................................................

 iter      E             dE          RMSdq      gap      omega  full diag
   1    -27.2706388 -0.272706E+02  0.429E-02    4.11       0.0  T
   2    -27.2706399 -0.113857E-05  0.254E-02    4.11       1.0  T
   3    -27.2706397  0.159285E-06  0.623E-03    4.11       4.0  T
   4    -27.2706400 -0.263399E-06  0.121E-03    4.11      20.7  T
   5    -27.2706400 -0.115682E-07  0.633E-04    4.11      39.5  T
   6    -27.2706400 -0.473491E-09  0.192E-04    4.11     130.4  T
     SCC iter.                  ...        0 min,  0.001 sec
     gradient                   ...        0 min,  0.000 sec
 * total energy  :   -26.9868642 Eh     change       -0.2287650E-04 Eh
   gradient norm :     0.0024769 Eh/α   predicted    -0.2904238E-04 (  26.95%)
   displ. norm   :     0.1303876 α      lambda       -0.1862625E-04
   maximum displ.:     0.0843266 α      in ANC's #2, #1, #4, ...
 * RMSD in coord.:     0.4535989 α      energy gain  -0.3528446E-02 Eh

generating ANC from exact Hessian ...
Using Lindh-Hessian (1995)
 Shifting diagonal of input Hessian by   8.004776756980383E-003
 Lowest  eigenvalues of input Hessian
    0.000000    0.000000    0.000000    0.000000    0.000000    0.000000
    0.010000    0.011575    0.013346    0.017853    0.020833    0.025067
    0.030572    0.042834    0.056893    0.062499    0.063939    0.068202
 Highest eigenvalues
    1.201012    1.282607    1.399398    1.775731    2.159462    2.366309
 

........................................................................
.............................. CYCLE   21 ..............................
........................................................................

 iter      E             dE          RMSdq      gap      omega  full diag
   1    -27.2699960 -0.272700E+02  0.980E-02    4.09       0.0  T
   2    -27.2699970 -0.105368E-05  0.578E-02    4.09       1.0  T
   3    -27.2699970  0.101408E-07  0.545E-03    4.09       4.6  T
   4    -27.2699973 -0.265710E-06  0.200E-03    4.09      12.5  T
   5    -27.2699973 -0.105626E-07  0.101E-03    4.09      24.6  T
   6    -27.2699973 -0.196239E-08  0.404E-04    4.09      61.8  T
   7    -27.2699973 -0.362451E-09  0.159E-04    4.09     157.6  T
     SCC iter.                  ...        0 min,  0.001 sec
     gradient                   ...        0 min,  0.001 sec
 * total energy  :   -26.9868685 Eh     change       -0.4318792E-05 Eh
   gradient norm :     0.0038634 Eh/α   predicted     0.0000000E+00 (-100.00%)
   displ. norm   :     0.0173044 α      lambda       -0.1822984E-04
   maximum displ.:     0.0125917 α      in ANC's #3, #1, #5, ...

........................................................................
.............................. CYCLE   22 ..............................
........................................................................

 iter      E             dE          RMSdq      gap      omega  full diag
   1    -27.2703241 -0.272703E+02  0.132E-02    4.10       0.0  T
   2    -27.2703244 -0.259904E-06  0.802E-03    4.10       3.1  T
   3    -27.2703244  0.143097E-07  0.316E-03    4.10       7.9  T
   4    -27.2703244 -0.565693E-07  0.604E-04    4.10      41.4  T
   5    -27.2703244 -0.129245E-08  0.292E-04    4.10      85.6  T
     SCC iter.                  ...        0 min,  0.001 sec
     gradient                   ...        0 min,  0.001 sec
 * total energy  :   -26.9868801 Eh     change       -0.1159831E-04 Eh
   gradient norm :     0.0008708 Eh/α   predicted    -0.9118082E-05 ( -21.38%)
   displ. norm   :     0.0345480 α      lambda       -0.6132113E-05
   maximum displ.:     0.0254785 α      in ANC's #3, #1, #2, ...

........................................................................
.............................. CYCLE   23 ..............................
........................................................................

 iter      E             dE          RMSdq      gap      omega  full diag
   1    -27.2703968 -0.272704E+02  0.248E-02    4.10       0.0  T
   2    -27.2703970 -0.255082E-06  0.145E-02    4.10       1.7  T
   3    -27.2703970  0.567722E-07  0.347E-03    4.10       7.2  T
   4    -27.2703971 -0.109992E-06  0.763E-04    4.10      32.8  T
   5    -27.2703971 -0.146096E-08  0.400E-04    4.10      62.6  T
     SCC iter.                  ...        0 min,  0.002 sec
     gradient                   ...        0 min,  0.001 sec
 * total energy  :   -26.9868860 Eh     change       -0.5846836E-05 Eh
   gradient norm :     0.0014142 Eh/α   predicted    -0.3069465E-05 ( -47.50%)
   displ. norm   :     0.0478326 α      lambda       -0.5672138E-05
   maximum displ.:     0.0362311 α      in ANC's #3, #1, #2, ...

........................................................................
.............................. CYCLE   24 ..............................
........................................................................

 iter      E             dE          RMSdq      gap      omega  full diag
   1    -27.2702958 -0.272703E+02  0.323E-02    4.10       0.0  T
   2    -27.2702959 -0.146387E-06  0.188E-02    4.10       1.3  T
   3    -27.2702959  0.566652E-08  0.241E-03    4.10      10.4  T
   4    -27.2702960 -0.568641E-07  0.877E-04    4.10      28.5  T
   5    -27.2702960 -0.129106E-08  0.426E-04    4.10      58.7  T
     SCC iter.                  ...        0 min,  0.002 sec
     gradient                   ...        0 min,  0.001 sec
 * total energy  :   -26.9868931 Eh     change       -0.7074276E-05 Eh
   gradient norm :     0.0014913 Eh/α   predicted    -0.2839716E-05 ( -59.86%)
   displ. norm   :     0.0790331 α      lambda       -0.8792718E-05
   maximum displ.:     0.0558986 α      in ANC's #3, #1, #2, ...

........................................................................
.............................. CYCLE   25 ..............................
........................................................................

 iter      E             dE          RMSdq      gap      omega  full diag
   1    -27.2701271 -0.272701E+02  0.561E-02    4.10       0.0  T
   2    -27.2701274 -0.304805E-06  0.329E-02    4.10       1.0  T
   3    -27.2701273  0.266296E-07  0.392E-03    4.10       6.4  T
   4    -27.2701275 -0.165518E-06  0.150E-03    4.10      16.7  T
   5    -27.2701275 -0.304986E-08  0.581E-04    4.10      43.1  T
   6    -27.2701275 -0.516035E-09  0.166E-04    4.10     150.9  T
     SCC iter.                  ...        0 min,  0.001 sec
     gradient                   ...        0 min,  0.001 sec
 * total energy  :   -26.9869021 Eh     change       -0.9020169E-05 Eh
   gradient norm :     0.0013588 Eh/α   predicted    -0.4407370E-05 ( -51.14%)
   displ. norm   :     0.0639218 α      lambda       -0.5061742E-05
   maximum displ.:     0.0469275 α      in ANC's #3, #1, #2, ...

........................................................................
.............................. CYCLE   26 ..............................
........................................................................

 iter      E             dE          RMSdq      gap      omega  full diag
   1    -27.2702402 -0.272702E+02  0.415E-02    4.10       0.0  T
   2    -27.2702405 -0.256455E-06  0.244E-02    4.10       1.0  T
   3    -27.2702404  0.310843E-07  0.317E-03    4.10       7.9  T
   4    -27.2702405 -0.114292E-06  0.116E-03    4.10      21.6  T
   5    -27.2702405 -0.336193E-08  0.589E-04    4.10      42.5  T
   6    -27.2702405 -0.315687E-09  0.118E-04    4.10     212.1  T
     SCC iter.                  ...        0 min,  0.002 sec
     gradient                   ...        0 min,  0.001 sec
 * total energy  :   -26.9869067 Eh     change       -0.4659403E-05 Eh
   gradient norm :     0.0008512 Eh/α   predicted    -0.2535830E-05 ( -45.58%)
   displ. norm   :     0.0350795 α      lambda       -0.2013543E-05
   maximum displ.:     0.0257103 α      in ANC's #3, #1, #6, ...

........................................................................
.............................. CYCLE   27 ..............................
........................................................................

 iter      E             dE          RMSdq      gap      omega  full diag
   1    -27.2703261 -0.272703E+02  0.234E-02    4.10       0.0  T
   2    -27.2703262 -0.699838E-07  0.138E-02    4.10       1.8  T
   3    -27.2703262 -0.206172E-08  0.143E-03    4.10      17.5  T
   4    -27.2703262 -0.188622E-07  0.613E-04    4.10      40.8  T
   5    -27.2703262 -0.120209E-08  0.314E-04    4.10      79.6  T
     SCC iter.                  ...        0 min,  0.002 sec
     gradient                   ...        0 min,  0.001 sec
 * total energy  :   -26.9869089 Eh     change       -0.2136055E-05 Eh
   gradient norm :     0.0005499 Eh/α   predicted    -0.1006022E-05 ( -52.90%)
   displ. norm   :     0.0447814 α      lambda       -0.2425896E-05
   maximum displ.:     0.0317256 α      in ANC's #3, #1, #6, ...

........................................................................
.............................. CYCLE   28 ..............................
........................................................................

 iter      E             dE          RMSdq      gap      omega  full diag
   1    -27.2704645 -0.272705E+02  0.294E-02    4.10       0.0  T
   2    -27.2704647 -0.150161E-06  0.174E-02    4.10       1.4  T
   3    -27.2704647  0.982801E-08  0.207E-03    4.10      12.1  T
   4    -27.2704647 -0.423744E-07  0.781E-04    4.10      32.0  T
   5    -27.2704647 -0.279103E-08  0.409E-04    4.10      61.1  T
     SCC iter.                  ...        0 min,  0.002 sec
     gradient                   ...        0 min,  0.001 sec
 * total energy  :   -26.9869112 Eh     change       -0.2346664E-05 Eh
   gradient norm :     0.0005791 Eh/α   predicted    -0.1212722E-05 ( -48.32%)
   displ. norm   :     0.0455421 α      lambda       -0.1752058E-05
   maximum displ.:     0.0302819 α      in ANC's #1, #3, #2, ...

........................................................................
.............................. CYCLE   29 ..............................
........................................................................

 iter      E             dE          RMSdq      gap      omega  full diag
   1    -27.2704213 -0.272704E+02  0.290E-02    4.10       0.0  T
   2    -27.2704213 -0.608673E-07  0.171E-02    4.10       1.5  T
   3    -27.2704213 -0.114525E-07  0.134E-03    4.10      18.6  T
   4    -27.2704213 -0.141481E-07  0.647E-04    4.10      38.7  T
   5    -27.2704213 -0.716792E-09  0.286E-04    4.10      87.4  T
     SCC iter.                  ...        0 min,  0.001 sec
     gradient                   ...        0 min,  0.001 sec
 * total energy  :   -26.9869133 Eh     change       -0.2118987E-05 Eh
   gradient norm :     0.0006410 Eh/α   predicted    -0.8760670E-06 ( -58.66%)
   displ. norm   :     0.0369288 α      lambda       -0.1689885E-05
   maximum displ.:     0.0253884 α      in ANC's #1, #2, #3, ...

........................................................................
.............................. CYCLE   30 ..............................
........................................................................

 iter      E             dE          RMSdq      gap      omega  full diag
   1    -27.2704162 -0.272704E+02  0.244E-02    4.10       0.0  T
   2    -27.2704162 -0.315149E-07  0.143E-02    4.10       1.7  T
   3    -27.2704162 -0.109478E-07  0.689E-04    4.10      36.3  T
   4    -27.2704162 -0.105077E-08  0.393E-04    4.10      63.7  T
     SCC iter.                  ...        0 min,  0.001 sec
     gradient                   ...        0 min,  0.001 sec
 * total energy  :   -26.9869156 Eh     change       -0.2284210E-05 Eh
   gradient norm :     0.0005523 Eh/α   predicted    -0.8461909E-06 ( -62.95%)
   displ. norm   :     0.0410957 α      lambda       -0.2112443E-05
   maximum displ.:     0.0292090 α      in ANC's #1, #2, #4, ...

........................................................................
.............................. CYCLE   31 ..............................
........................................................................

 iter      E             dE          RMSdq      gap      omega  full diag
   1    -27.2703264 -0.272703E+02  0.269E-02    4.10       0.0  T
   2    -27.2703265 -0.876111E-07  0.158E-02    4.10       1.6  T
   3    -27.2703265 -0.106427E-07  0.896E-04    4.10      27.9  T
   4    -27.2703265 -0.239237E-08  0.419E-04    4.10      59.7  T
     SCC iter.                  ...        0 min,  0.001 sec
     gradient                   ...        0 min,  0.001 sec
 * total energy  :   -26.9869184 Eh     change       -0.2818182E-05 Eh
   gradient norm :     0.0002365 Eh/α   predicted    -0.1055432E-05 ( -62.55%)
   displ. norm   :     0.0522913 α      lambda       -0.2425914E-05
   maximum displ.:     0.0355594 α      in ANC's #1, #2, #4, ...

........................................................................
.............................. CYCLE   32 ..............................
........................................................................

 iter      E             dE          RMSdq      gap      omega  full diag
   1    -27.2703303 -0.272703E+02  0.339E-02    4.10       0.0  T
   2    -27.2703304 -0.923220E-07  0.200E-02    4.10       1.3  T
   3    -27.2703304 -0.957533E-08  0.122E-03    4.10      20.5  T
   4    -27.2703304 -0.101222E-07  0.571E-04    4.10      43.8  T
   5    -27.2703304 -0.131858E-08  0.317E-04    4.10      78.9  T
     SCC iter.                  ...        0 min,  0.001 sec
     gradient                   ...        0 min,  0.000 sec
 * total energy  :   -26.9869215 Eh     change       -0.3047205E-05 Eh
   gradient norm :     0.0004382 Eh/α   predicted    -0.1214470E-05 ( -60.14%)
   displ. norm   :     0.0619863 α      lambda       -0.2205713E-05
   maximum displ.:     0.0439880 α      in ANC's #1, #2, #4, ...

........................................................................
.............................. CYCLE   33 ..............................
........................................................................

 iter      E             dE          RMSdq      gap      omega  full diag
   1    -27.2702156 -0.272702E+02  0.384E-02    4.09       0.0  T
   2    -27.2702157 -0.963071E-07  0.226E-02    4.09       1.1  T
   3    -27.2702158 -0.191307E-07  0.114E-03    4.09      21.9  T
   4    -27.2702158 -0.570370E-08  0.585E-04    4.09      42.7  T
   5    -27.2702158 -0.723919E-09  0.312E-04    4.09      80.2  T
     SCC iter.                  ...        0 min,  0.001 sec
     gradient                   ...        0 min,  0.001 sec
 * total energy  :   -26.9869241 Eh     change       -0.2641753E-05 Eh
   gradient norm :     0.0005752 Eh/α   predicted    -0.1104268E-05 ( -58.20%)
   displ. norm   :     0.0551258 α      lambda       -0.1400250E-05
   maximum displ.:     0.0393305 α      in ANC's #1, #2, #4, ...

........................................................................
.............................. CYCLE   34 ..............................
........................................................................

 iter      E             dE          RMSdq      gap      omega  full diag
   1    -27.2702351 -0.272702E+02  0.331E-02    4.09       0.0  T
   2    -27.2702352 -0.399787E-07  0.195E-02    4.09       1.3  T
   3    -27.2702352 -0.169913E-07  0.857E-04    4.09      29.2  T
   4    -27.2702352 -0.179423E-08  0.491E-04    4.09      50.9  T
     SCC iter.                  ...        0 min,  0.001 sec
     gradient                   ...        0 min,  0.000 sec
 * total energy  :   -26.9869258 Eh     change       -0.1651972E-05 Eh
   gradient norm :     0.0003974 Eh/α   predicted    -0.7000831E-06 ( -57.62%)
   displ. norm   :     0.0411921 α      lambda       -0.7738964E-06
   maximum displ.:     0.0308427 α      in ANC's #1, #2, #3, ...

........................................................................
.............................. CYCLE   35 ..............................
........................................................................

 iter      E             dE          RMSdq      gap      omega  full diag
   1    -27.2702562 -0.272703E+02  0.240E-02    4.09       0.0  T
   2    -27.2702562 -0.303286E-07  0.141E-02    4.09       1.8  T
   3    -27.2702562 -0.356986E-08  0.105E-03    4.09      23.8  T
   4    -27.2702562 -0.101134E-07  0.465E-04    4.09      53.8  T
   5    -27.2702562 -0.264862E-09  0.178E-04    4.09     140.4  T
     SCC iter.                  ...        0 min,  0.001 sec
     gradient                   ...        0 min,  0.001 sec
 * total energy  :   -26.9869267 Eh     change       -0.9278928E-06 Eh
   gradient norm :     0.0002194 Eh/α   predicted    -0.3869322E-06 ( -58.30%)
   displ. norm   :     0.0337023 α      lambda       -0.4394919E-06
   maximum displ.:     0.0253294 α      in ANC's #1, #2, #3, ...

   *** GEOMETRY OPTIMIZATION CONVERGED AFTER 35 ITERATIONS ***

------------------------------------------------------------------------
 total energy gain   :        -0.0035909 Eh       -2.2533 kcal/mol
 total RMSD          :         0.5520317 a0        0.2921 Å
 total power (kW/mol):        -0.2693715 (step)  -74.8255 (real)
------------------------------------------------------------------------

 ANCopt (total)                0 d,  0 h,  0 min,  0.126 sec
 optimizer setup                ...        0 min,  0.000 sec (  0.000%)
 model hessian                  ...        0 min,  0.005 sec (  3.968%)
 ANC generation                 ...        0 min,  0.000 sec (  0.000%)
 coordinate transformation      ...        0 min,  0.000 sec (  0.000%)
 single point calculation       ...        0 min,  0.108 sec ( 85.714%)
 optimization log               ...        0 min,  0.009 sec (  7.143%)
 hessian update                 ...        0 min,  0.000 sec (  0.000%)
 rational function              ...        0 min,  0.004 sec (  3.175%)

================
 final structure:
================
16
 xtb: 6.7.1pre (5071a88)
C           -2.19351081546339        0.75449838146131       -0.46684824476835
C           -1.22254002086649       -0.37677022575403       -0.28972630753280
O           -1.16231254648050       -1.32341939637507       -1.03147307121301
C           -0.29757958590443       -0.23766281118145        0.91180430407410
C            1.09919317035171       -0.73627959720862        0.55455310643844
C            1.72289585618339        0.16021167313388       -0.48570526429913
O            1.21908331760218        1.14970384223998       -0.94564678096992
O            2.93502294577030       -0.27029970399490       -0.85078479226681
H           -2.67957769839915        0.99552112510932        0.47528467041982
H           -2.93439408285962        0.50930238833830       -1.22276169125431
H           -1.62469886852010        1.62465342643381       -0.79165053707250
H           -0.70954305252025       -0.84546152332256        1.72054581100466
H           -0.26001703481470        0.80142056136861        1.23651542544886
H            1.04121522944017       -1.74186297974512        0.13217651172435
H            1.75611026708871       -0.77129003569950        1.42486667806050
H            3.31065391939230        0.30773387519631       -1.53356081779396
 
 Bond Distances (Angstroems)
 ---------------------------
C1-C2=1.5013         C1-H9=1.0872         C1-H10=1.0865        C1-H11=1.0891        C2-C1=1.5013         C2-O3=1.2041         
C2-C4=1.5227         O3-C2=1.2041         C4-C2=1.5227         C4-C5=1.5255         C4-H12=1.0923        C4-H13=1.0893        
C5-C4=1.5255         C5-C6=1.5083         C5-H14=1.0922        C5-H15=1.0910        C6-C5=1.5083         C6-O7=1.2019         
C6-O8=1.3371         O7-C6=1.2019         O8-C6=1.3371         O8-H16=0.9703        H9-C1=1.0872         H10-C1=1.0865        
H11-C1=1.0891        H12-C4=1.0923        H13-C4=1.0893        H14-C5=1.0922        H15-C5=1.0910        H16-O8=0.9703        
 C  H  Rav=1.0897 sigma=0.0021  Rmin=1.0865  Rmax=1.0923     7
 C  C  Rav=1.5144 sigma=0.0100  Rmin=1.5013  Rmax=1.5255     4
 O  H  Rav=0.9703 sigma=0.0000  Rmin=0.9703  Rmax=0.9703     1
 O  C  Rav=1.2477 sigma=0.0632  Rmin=1.2019  Rmax=1.3371     3
 
 selected bond angles (degree)
 --------------------
H9-C1-C2=110.73                H10-C1-C2=110.67               H10-C1-H9=110.37               H11-C1-C2=107.42               
H11-C1-H9=108.35               H11-C1-H10=109.21              O3-C2-C1=123.51                C4-C2-C1=114.65                
C4-C2-O3=121.84                C5-C4-C2=109.97                H12-C4-C2=107.72               H12-C4-C5=109.68               
H13-C4-C2=110.08               H13-C4-C5=110.49               H13-C4-H12=108.85              C6-C5-C4=110.23                
H14-C5-C4=110.05               H14-C5-C6=107.61               H15-C5-C4=112.02               H15-C5-C6=108.68               
H15-C5-H14=108.11              O7-C6-C5=125.45                O8-C6-C5=111.83                O8-C6-O7=122.72                
H16-O8-C6=110.57               
 
 selected dihedral angles (degree)
 ---------------------------------
O3-C2-C1-H9=133.32            O3-C2-C1-H10= 10.60           O3-C2-C1-H11=251.46           C4-C2-C1-H9=313.04            
C4-C2-C1-H10=190.31           C4-C2-C1-H11= 71.17           C5-C4-C2-C1=218.52            C5-C4-C2-O3= 38.24            
H12-C4-C2-C1= 99.02           H12-C4-C2-O3=278.74           H13-C4-C2-C1=340.48           H13-C4-C2-O3=160.20           
C6-C5-C4-C2= 66.13            C6-C5-C4-H12=184.41           C6-C5-C4-H13=304.41           H14-C5-C4-C2=307.59           
H14-C5-C4-H12= 65.88          H14-C5-C4-H13=185.88          H15-C5-C4-C2=187.28           H15-C5-C4-H12=305.57          
H15-C5-C4-H13= 65.57          O7-C6-C5-C4=  2.05            O7-C6-C5-H14=122.07           O7-C6-C5-H15=238.92           
O8-C6-C5-C4=181.78            O8-C6-C5-H14=301.81           O8-C6-C5-H15= 58.65           H16-O8-C6-C5=178.76           
H16-O8-C6-O7=358.50           
           -------------------------------------------------
          |                Final Singlepoint                |
           -------------------------------------------------

          ...................................................
          :                      SETUP                      :
          :.................................................:
          :  # basis functions                  40          :
          :  # atomic orbitals                  40          :
          :  # shells                           24          :
          :  # electrons                        46          :
          :  max. iterations                   250          :
          :  Hamiltonian                  GFN2-xTB          :
          :  restarted?                      false          :
          :  GBSA solvation                  false          :
          :  PC potential                    false          :
          :  electronic temp.          300.0000000     K    :
          :  accuracy                    1.0000000          :
          :  -> integral cutoff          0.2500000E+02      :
          :  -> integral neglect         0.1000000E-07      :
          :  -> SCF convergence          0.1000000E-05 Eh   :
          :  -> wf. convergence          0.1000000E-03 e    :
          :  Broyden damping             0.4000000          :
          :  net charge                          0          :
          :  unpaired electrons                  0          :
          ...................................................

 iter      E             dE          RMSdq      gap      omega  full diag
   1    -27.2702562 -0.272703E+02  0.688E-05    4.09       0.0  T
   2    -27.2702562 -0.887823E-11  0.426E-05    4.09     586.3  T
   3    -27.2702562 -0.117240E-11  0.232E-05    4.09    1076.8  T

   *** convergence criteria satisfied after 3 iterations ***

         #    Occupation            Energy/Eh            Energy/eV
      -------------------------------------------------------------
         1        2.0000           -0.7510062             -20.4359
       ...           ...                  ...                  ...
        17        2.0000           -0.4842953             -13.1783
        18        2.0000           -0.4816240             -13.1057
        19        2.0000           -0.4738903             -12.8952
        20        2.0000           -0.4670484             -12.7090
        21        2.0000           -0.4628711             -12.5954
        22        2.0000           -0.4289714             -11.6729
        23        2.0000           -0.3969011             -10.8002 (HOMO)
        24                         -0.2465195              -6.7081 (LUMO)
        25                         -0.2379682              -6.4754
        26                          0.0411772               1.1205
        27                          0.0675079               1.8370
        28                          0.1128250               3.0701
       ...                                ...                  ...
        40                          0.6420135              17.4701
      -------------------------------------------------------------
                  HL-Gap            0.1503816 Eh            4.0921 eV
             Fermi-level           -0.3217103 Eh           -8.7542 eV

 SCC (total)                   0 d,  0 h,  0 min,  0.002 sec
 SCC setup                      ...        0 min,  0.000 sec (  0.000%)
 Dispersion                     ...        0 min,  0.000 sec (  0.000%)
 classical contributions        ...        0 min,  0.000 sec (  0.000%)
 integral evaluation            ...        0 min,  0.001 sec ( 50.006%)
 iterations                     ...        0 min,  0.000 sec (  0.000%)
 molecular gradient             ...        0 min,  0.001 sec ( 49.994%)
 printout                       ...        0 min,  0.000 sec (  0.000%)

         :::::::::::::::::::::::::::::::::::::::::::::::::::::
         ::                     SUMMARY                     ::
         :::::::::::::::::::::::::::::::::::::::::::::::::::::
         :: total energy             -26.986926703697 Eh    ::
         :: gradient norm              0.000219223223 Eh/a0 ::
         :: HOMO-LUMO gap              4.092092679410 eV    ::
         ::.................................................::
         :: SCC energy               -27.270230623250 Eh    ::
         :: -> isotropic ES            0.075470401819 Eh    ::
         :: -> anisotropic ES          0.000301017121 Eh    ::
         :: -> anisotropic XC          0.003896743103 Eh    ::
         :: -> dispersion             -0.010069654212 Eh    ::
         :: repulsion energy           0.283303919553 Eh    ::
         :: add. restraining           0.000000000000 Eh    ::
         :: total charge              -0.000000000000 e     ::
         :::::::::::::::::::::::::::::::::::::::::::::::::::::

           -------------------------------------------------
          |                Property Printout                |
           -------------------------------------------------

    * Orbital Energies and Occupations

         #    Occupation            Energy/Eh            Energy/eV
      -------------------------------------------------------------
         1        2.0000           -0.7510062             -20.4359
       ...           ...                  ...                  ...
        11        2.0000           -0.5649680             -15.3736
        12        2.0000           -0.5431696             -14.7804
        13        2.0000           -0.5419333             -14.7468
        14        2.0000           -0.5193243             -14.1315
        15        2.0000           -0.5052151             -13.7476
        16        2.0000           -0.4942020             -13.4479
        17        2.0000           -0.4842953             -13.1783
        18        2.0000           -0.4816240             -13.1057
        19        2.0000           -0.4738903             -12.8952
        20        2.0000           -0.4670484             -12.7090
        21        2.0000           -0.4628711             -12.5954
        22        2.0000           -0.4289714             -11.6729
        23        2.0000           -0.3969011             -10.8002 (HOMO)
        24                         -0.2465195              -6.7081 (LUMO)
        25                         -0.2379682              -6.4754
        26                          0.0411772               1.1205
        27                          0.0675079               1.8370
        28                          0.1128250               3.0701
        29                          0.1372028               3.7335
        30                          0.1414621               3.8494
        31                          0.1536022               4.1797
        32                          0.1714267               4.6648
        33                          0.1862593               5.0684
        34                          0.2125791               5.7846
       ...                                ...                  ...
        40                          0.6420135              17.4701
      -------------------------------------------------------------
                  HL-Gap            0.1503816 Eh            4.0921 eV
             Fermi-level           -0.3217103 Eh           -8.7542 eV

     #   Z          covCN         q      C6AA      α(0)
     1   6 C        3.754    -0.144    23.327     6.887
     2   6 C        2.812     0.249    22.827     7.828
     3   8 O        0.857    -0.359    20.881     6.127
     4   6 C        3.806    -0.087    22.156     6.701
     5   6 C        3.806    -0.086    22.142     6.699
     6   6 C        2.691     0.365    20.809     7.466
     7   8 O        0.856    -0.413    21.948     6.281
     8   8 O        1.660    -0.376    20.398     6.097
     9   1 H        0.925     0.062     2.180     2.309
    10   1 H        0.925     0.069     2.093     2.262
    11   1 H        0.925     0.089     1.892     2.151
    12   1 H        0.924     0.068     2.103     2.268
    13   1 H        0.925     0.064     2.154     2.295
    14   1 H        0.924     0.095     1.831     2.116
    15   1 H        0.924     0.073     2.051     2.240
    16   1 H        0.804     0.332     0.633     1.250

 Mol. C6AA /au·bohr⁶  :       2304.103610
 Mol. C8AA /au·bohr⁸  :      50883.840246
 Mol. α(0) /au        :         70.974922


Wiberg/Mayer (AO) data.
largest (>0.10) Wiberg bond orders for each atom

 ---------------------------------------------------------------------------
     #   Z sym  total        # sym  WBO       # sym  WBO       # sym  WBO
 ---------------------------------------------------------------------------
     1   6 C    3.994 --     2 C    1.013    10 H    0.982     9 H    0.967
                            11 H    0.948
     2   6 C    3.917 --     3 O    1.869     1 C    1.013     4 C    0.977
     3   8 O    2.075 --     2 C    1.869
     4   6 C    3.996 --     5 C    1.003     2 C    0.977    13 H    0.972
                            12 H    0.949
     5   6 C    3.994 --     4 C    1.003     6 C    0.980    15 H    0.953
                            14 H    0.947
     6   6 C    3.912 --     7 O    1.763     8 O    1.135     5 C    0.980
     7   8 O    2.036 --     6 C    1.763     8 O    0.171
     8   8 O    2.199 --     6 C    1.135    16 H    0.865     7 O    0.171
     9   1 H    0.996 --     1 C    0.967
    10   1 H    0.995 --     1 C    0.982
    11   1 H    0.992 --     1 C    0.948
    12   1 H    0.995 --     4 C    0.949
    13   1 H    0.996 --     4 C    0.972
    14   1 H    0.991 --     5 C    0.947
    15   1 H    0.994 --     5 C    0.953
    16   1 H    0.890 --     8 O    0.865
 ---------------------------------------------------------------------------

Topologies differ in total number of bonds
Writing topology from bond orders to xtbtopo.mol

molecular dipole:
                 x           y           z       tot (Debye)
 q only:        0.239       0.296       0.853
   full:        0.369       0.436       0.919       2.749
molecular quadrupole (traceless):
                xx          xy          yy          xz          yz          zz
 q only:        5.968      -3.880      -5.344      -3.828      -2.395      -0.623
  q+dip:        6.047      -2.688      -6.370      -4.949      -3.029       0.323
   full:        6.520      -2.356      -6.822      -5.315      -3.006       0.302

           -------------------------------------------------
          |                Geometry Summary                 |
           -------------------------------------------------

      molecular mass/u    :      116.1154203
   center of mass at/Å    :        0.3017853      -0.0986405      -0.3539633
  moments of inertia/u·Å² :        0.1327365E+03   0.3888850E+03   0.4146383E+03
rotational constants/cm⁻¹ :        0.1270008E+00   0.4334863E-01   0.4065623E-01

 * 12 selected distances

     #   Z          #   Z                                           value/Å
     2   6 C        3   8 O                                       1.2041431
     4   6 C        5   6 C                                       1.5255234 (max)
     6   6 C        7   8 O                                       1.2018603
     6   6 C        8   8 O                                       1.3371146
     1   6 C        9   1 H                                       1.0871833
     1   6 C       10   1 H                                       1.0864780
     1   6 C       11   1 H                                       1.0891343
     4   6 C       12   1 H                                       1.0923352
     4   6 C       13   1 H                                       1.0892854
     5   6 C       14   1 H                                       1.0922278
     5   6 C       15   1 H                                       1.0909683
     8   8 O       16   1 H                                       0.9702601 (min)

 * 4 distinct bonds (by element types)

   Z      Z             #   av. dist./Å        max./Å        min./Å
   1 H    6 C           7     1.0896589     1.0923352     1.0864780
   6 C    6 C           1     1.5255234     1.5255234     1.5255234
   1 H    8 O           1     0.9702601     0.9702601     0.9702601
   6 C    8 O           3     1.2477060     1.3371146     1.2018603


optimized geometry written to: xtbopt.xyz


           -------------------------------------------------
          | TOTAL ENERGY              -26.986926703697 Eh   |
          | GRADIENT NORM               0.000219223223 Eh/α |
          | HOMO-LUMO GAP               4.092092679410 eV   |
           -------------------------------------------------

------------------------------------------------------------------------
 * finished run on 2026/09/17 at 00:40:21.492     
------------------------------------------------------------------------
 total:
 * wall-time:     0 d,  0 h,  0 min,  0.165 sec
 *  cpu-time:     0 d,  0 h,  0 min,  0.625 sec
 * ratio c/w:     3.788 speedup
 SCF:
 * wall-time:     0 d,  0 h,  0 min,  0.008 sec
 *  cpu-time:     0 d,  0 h,  0 min,  0.000 sec
 * ratio c/w:     0.000 speedup
 ANC optimizer:
 * wall-time:     0 d,  0 h,  0 min,  0.132 sec
 *  cpu-time:     0 d,  0 h,  0 min,  0.547 sec
 * ratio c/w:     4.143 speedup

