11
 energy: -20.838424274377 gnorm: 0.000241554122 xtb: 6.7.1pre (5071a88)
C           -1.49978719305934        0.11175312894921       -0.60519463137941
C           -1.45819494699159       -0.52585250772254        0.60470073998410
O           -0.21219486131097       -0.59764705588755        1.06788366328142
C            0.59214044975346        0.00082503325810        0.15447898933711
C           -0.16995849331804        0.45604929893302       -0.90220953254896
C            2.01600963725000        0.06713435552878        0.40489742769522
O            2.82828896555451        0.57194720386361       -0.33050199820941
H           -2.36863578164451        0.30615950086574       -1.19963174197065
H           -2.23465614509012       -0.95548263564634        1.20801595234800
H            0.20054343436412        0.96764526141614       -1.76653268437827
H            2.30644493449248       -0.40253058355815        1.36409381584085
