13
Coordinates from ORCA-job optfreq E -307.405960642248
  C          -1.63745418822114      0.28383612768316      0.02130013382112
  C          -0.70342083309294      1.30477769038508      0.16461823497093
  C           0.65946389967434      1.02521567496131      0.14123008278020
  C           1.09057766481558     -0.29062203136618     -0.02748178570454
  C           0.16254341902091     -1.32122673843855     -0.17199553535939
  C          -1.19438883498099     -1.02672473328074     -0.14659122412627
  O           2.41494449511409     -0.63238521557090     -0.05941298237897
  H          -2.69945846302615      0.50593188028068      0.04013391992059
  H          -1.03325743716325      2.33131560698092      0.29630292833560
  H           1.38631435376559      1.82742646015622      0.25376473700030
  H           0.51970355887133     -2.33788367665785     -0.30206716544759
  H          -1.91410172297590     -1.83255644827400     -0.25946509936809
  H           2.94853608819852      0.16289640314084      0.04966375555610
