13
Coordinates from ORCA-job optfreq E -307.405445872363
  C      -1.627317      0.281241      0.021121
  C      -0.699406      1.297448      0.163684
  C       0.654814      1.015078      0.139757
  C       1.088494     -0.294315     -0.028082
  C       0.155604     -1.316725     -0.171509
  C      -1.193792     -1.024205     -0.146201
  O       2.410087     -0.619577     -0.057962
  H      -2.683093      0.504795      0.040223
  H      -1.027534      2.318136      0.294613
  H       1.380279      1.810980      0.251401
  H       0.510212     -2.326937     -0.300804
  H      -1.912932     -1.822004     -0.258033
  H       2.944587      0.176086      0.051792
13
Coordinates from ORCA-job optfreq E -307.405924668769
  C      -1.634950      0.283351      0.021267
  C      -0.702831      1.303929      0.164516
  C       0.657775      1.021931      0.140767
  C       1.091681     -0.292857     -0.027793
  C       0.160590     -1.320342     -0.171885
  C      -1.194891     -1.026663     -0.146595
  O       2.414638     -0.627401     -0.058937
  H      -2.697081      0.506351      0.040236
  H      -1.033027      2.330196      0.296162
  H       1.386455      1.822964      0.253116
  H       0.518401     -2.337183     -0.301977
  H      -1.915927     -1.830960     -0.259263
  H       2.949168      0.166684      0.050385
13
Coordinates from ORCA-job optfreq E -307.405955065387
  C      -1.637177      0.283834      0.021301
  C      -0.703593      1.305253      0.164680
  C       0.658808      1.024361      0.141097
  C       1.091551     -0.291630     -0.027635
  C       0.162150     -1.321142     -0.171987
  C      -1.194786     -1.026965     -0.146627
  O       2.415110     -0.630885     -0.059317
  H      -2.699503      0.506135      0.040170
  H      -1.033777      2.331824      0.296374
  H       1.386891      1.826057      0.253556
  H       0.519957     -2.338083     -0.302085
  H      -1.915092     -1.832433     -0.259440
  H       2.949463      0.163676      0.049912
13
Coordinates from ORCA-job optfreq E -307.405959864693
  C      -1.637589      0.283873      0.021305
  C      -0.703571      1.305127      0.164662
  C       0.659278      1.025151      0.141210
  C       1.090942     -0.290871     -0.027524
  C       0.162563     -1.321243     -0.172000
  C      -1.194516     -1.026829     -0.146606
  O       2.414994     -0.632190     -0.059424
  H      -2.699694      0.505934      0.040138
  H      -1.033562      2.331657      0.296349
  H       1.386594      1.827130      0.253713
  H       0.519997     -2.337954     -0.302073
  H      -1.914356     -1.832611     -0.259466
  H       2.948923      0.162828      0.049717
13
Coordinates from ORCA-job optfreq E -307.405960642248
  C      -1.637454      0.283836      0.021300
  C      -0.703421      1.304778      0.164618
  C       0.659464      1.025216      0.141230
  C       1.090578     -0.290622     -0.027482
  C       0.162543     -1.321227     -0.171996
  C      -1.194389     -1.026725     -0.146591
  O       2.414944     -0.632385     -0.059413
  H      -2.699458      0.505932      0.040134
  H      -1.033257      2.331316      0.296303
  H       1.386314      1.827426      0.253765
  H       0.519704     -2.337884     -0.302067
  H      -1.914102     -1.832556     -0.259465
  H       2.948536      0.162896      0.049664
