13
 energy: -19.954146323170 gnorm: 0.000060591238 xtb: 6.7.1pre (5071a88)
C           -1.62731654488380        0.28124146092488        0.02112065060792
C           -0.69940598170731        1.29744809980591        0.16368378318742
C            0.65481382573355        1.01507753424287        0.13975722452736
C            1.08849407625969       -0.29431498148222       -0.02808190933643
C            0.15560392336706       -1.31672501542186       -0.17150866126662
C           -1.19379234910132       -1.02420505337820       -0.14620149642754
O            2.41008692495161       -0.61957704961200       -0.05796208249110
H           -2.68309310140695        0.50479471289434        0.04022265807996
H           -1.02753435337505        2.31813612050675        0.29461320331427
H            1.38027871560869        1.81097984720828        0.25140146465922
H            0.51021206579512       -2.32693735492436       -0.30080379593778
H           -1.91293206270095       -1.82200358658827       -0.25803330627106
H            2.94458686145966        0.17608626582388        0.05179226735438
