27
Coordinates from ORCA-job optfreq E -353.699983600641
  C       3.823630     -0.062543     -0.397764
  C       2.441917     -0.505515      0.068725
  C       1.369386      0.512964     -0.312631
  C      -0.021119      0.188487      0.243641
  C      -0.962214      1.379601      0.044621
  C      -2.348436      1.090359      0.612105
  C      -2.945481     -0.150022     -0.043719
  C      -2.018236     -1.344607      0.151747
  C      -0.632052     -1.049747     -0.414776
  H       4.095898      0.886285      0.059913
  H       3.838455      0.063387     -1.478324
  H       4.575009     -0.801373     -0.128193
  H       2.449690     -0.631095      1.154043
  H       2.210635     -1.474411     -0.376751
  H       1.313120      0.587330     -1.401470
  H       1.674221      1.492146      0.066752
  H       0.072391     -0.000883      1.319602
  H      -1.045826      1.594409     -1.023625
  H      -0.544136      2.264700      0.529957
  H      -2.271459      0.927848      1.689947
  H      -3.001963      1.950473      0.449919
  H      -3.079423      0.033981     -1.112339
  H      -3.927013     -0.364175      0.384841
  H      -1.932896     -1.564714      1.218711
  H      -2.437450     -2.226401     -0.338113
  H       0.012703     -1.915643     -0.256378
  H      -0.709349     -0.880840     -1.491722
27
Coordinates from ORCA-job optfreq E -353.701201368758
  C       3.845763     -0.068261     -0.410717
  C       2.456287     -0.507251      0.057223
  C       1.376454      0.518455     -0.300733
  C      -0.020474      0.196001      0.249738
  C      -0.969570      1.387532      0.053507
  C      -2.369930      1.099171      0.603439
  C      -2.962568     -0.153781     -0.045991
  C      -2.031022     -1.352101      0.151426
  C      -0.629409     -1.057288     -0.394475
  H       4.131967      0.878401      0.059564
  H       3.860631      0.075995     -1.496255
  H       4.602698     -0.817031     -0.156794
  H       2.466521     -0.653154      1.145403
  H       2.216349     -1.476659     -0.395361
  H       1.316560      0.613629     -1.394423
  H       1.687097      1.499178      0.087027
  H       0.072444      0.012384      1.332400
  H      -1.041961      1.607863     -1.021510
  H      -0.552049      2.278552      0.540485
  H      -2.306221      0.946171      1.689608
  H      -3.026530      1.961756      0.433618
  H      -3.096590      0.026132     -1.121684
  H      -3.952410     -0.368848      0.375526
  H      -1.958606     -1.578389      1.224172
  H      -2.446088     -2.240309     -0.341185
  H       0.018560     -1.925190     -0.223461
  H      -0.687902     -0.902957     -1.481826
27
Coordinates from ORCA-job optfreq E -353.701338331438
  C       3.844434     -0.071985     -0.420438
  C       2.454983     -0.510570      0.046787
  C       1.376824      0.523300     -0.288426
  C      -0.019796      0.200774      0.257914
  C      -0.970516      1.389662      0.056960
  C      -2.376288      1.102321      0.593481
  C      -2.962808     -0.156761     -0.050448
  C      -2.030443     -1.353619      0.154131
  C      -0.622960     -1.059970     -0.377259
  H       4.139314      0.867711      0.060743
  H       3.858057      0.089289     -1.504634
  H       4.602288     -0.825832     -0.182213
  H       2.467914     -0.677013      1.133046
  H       2.207873     -1.474240     -0.416092
  H       1.314098      0.640315     -1.381372
  H       1.692480      1.498987      0.110526
  H       0.070930      0.023116      1.343392
  H      -1.033277      1.610939     -1.020109
  H      -0.555579      2.283067      0.542739
  H      -2.323438      0.958332      1.682746
  H      -3.032722      1.963685      0.415865
  H      -3.094521      0.017654     -1.128642
  H      -3.956063     -0.371438      0.363953
  H      -1.967923     -1.580656      1.228644
  H      -2.440049     -2.245139     -0.337488
  H       0.025550     -1.926110     -0.196756
  H      -0.668360     -0.915817     -1.468330
27
Coordinates from ORCA-job optfreq E -353.701378365491
  C       3.840767     -0.071942     -0.426547
  C       2.452707     -0.514914      0.035571
  C       1.376501      0.525656     -0.278548
  C      -0.019442      0.202549      0.265149
  C      -0.970087      1.389184      0.057481
  C      -2.378611      1.104365      0.584624
  C      -2.960703     -0.158161     -0.054387
  C      -2.029405     -1.353178      0.158762
  C      -0.618770     -1.062833     -0.362799
  H       4.139430      0.860113      0.067022
  H       3.854696      0.106907     -1.507968
  H       4.599800     -0.828688     -0.202476
  H       2.466526     -0.702938      1.118535
  H       2.202357     -1.471041     -0.440948
  H       1.311480      0.663376     -1.369320
  H       1.696490      1.495238      0.131943
  H       0.069017      0.030421      1.352151
  H      -1.025405      1.609509     -1.020535
  H      -0.556821      2.284405      0.540984
  H      -2.334435      0.968526      1.675570
  H      -3.033898      1.964782      0.399635
  H      -3.089821      0.010688     -1.134018
  H      -3.956348     -0.371171      0.354583
  H      -1.974557     -1.578481      1.234327
  H      -2.435492     -2.247426     -0.330353
  H       0.028538     -1.927701     -0.173922
  H      -0.654515     -0.927245     -1.455801
27
Coordinates from ORCA-job optfreq E -353.701384532424
  C       3.839068     -0.070901     -0.427468
  C       2.451308     -0.517680      0.029375
  C       1.376386      0.526322     -0.275210
  C      -0.019380      0.202810      0.267920
  C      -0.969918      1.388548      0.056109
  C      -2.378838      1.105157      0.581129
  C      -2.959377     -0.158520     -0.055741
  C      -2.028652     -1.352427      0.162133
  C      -0.617456     -1.064095     -0.357394
  H       4.137766      0.856859      0.073764
  H       3.854312      0.117436     -1.507100
  H       4.598376     -0.828981     -0.209643
  H       2.464204     -0.717195      1.110242
  H       2.200802     -1.469067     -0.456232
  H       1.310441      0.673450     -1.364583
  H       1.698473      1.492404      0.141624
  H       0.068149      0.033125      1.355208
  H      -1.023092      1.607144     -1.022171
  H      -0.557168      2.284825      0.537923
  H      -2.337503      0.972829      1.672475
  H      -3.033634      1.965135      0.392718
  H      -3.087306      0.007535     -1.135793
  H      -3.955735     -0.370590      0.351768
  H      -1.976071     -1.575450      1.238163
  H      -2.433801     -2.248111     -0.324998
  H       0.029108     -1.928505     -0.164708
  H      -0.650463     -0.932057     -1.450795
27
Coordinates from ORCA-job optfreq E -353.701386530025
  C       3.838504     -0.070128     -0.426914
  C       2.450240     -0.519781      0.024750
  C       1.376450      0.526929     -0.273885
  C      -0.019360      0.203158      0.269135
  C      -0.970072      1.388322      0.054353
  C      -2.378964      1.105734      0.579317
  C      -2.958744     -0.158826     -0.056129
  C      -2.028047     -1.351944      0.164869
  C      -0.616750     -1.064771     -0.354646
  H       4.136721      0.854227      0.080695
  H       3.855408      0.125399     -1.505173
  H       4.597516     -0.829585     -0.213113
  H       2.461564     -0.727571      1.104035
  H       2.200109     -1.467376     -0.468315
  H       1.309939      0.679819     -1.362312
  H       1.700017      1.490433      0.147640
  H       0.067761      0.035026      1.356515
  H      -1.022745      1.604944     -1.024175
  H      -0.557569      2.285539      0.534639
  H      -2.338629      0.975456      1.670827
  H      -3.033671      1.965347      0.388829
  H      -3.086066      0.005363     -1.136416
  H      -3.955313     -0.370419      0.351113
  H      -1.976096     -1.572777      1.241276
  H      -2.432829     -2.248717     -0.320605
  H       0.029518     -1.928797     -0.159384
  H      -0.648891     -0.935003     -1.448209
