27
 energy: -28.481259212563 gnorm: 0.000120178722 xtb: 6.7.1pre (5071a88)
C            3.82363029882805       -0.06254344903692       -0.39776364170391
C            2.44191720139669       -0.50551521883298        0.06872459491311
C            1.36938573689996        0.51296406300867       -0.31263061561213
C           -0.02111907385380        0.18848721227418        0.24364053351831
C           -0.96221358215085        1.37960088446647        0.04462065338113
C           -2.34843595902236        1.09035865386557        0.61210460484666
C           -2.94548148707719       -0.15002188559224       -0.04371886964866
C           -2.01823628560817       -1.34460689043477        0.15174695140772
C           -0.63205185770985       -1.04974740481501       -0.41477552981721
H            4.09589824837939        0.88628486906848        0.05991346244480
H            3.83845503555869        0.06338656640518       -1.47832427767150
H            4.57500912011185       -0.80137308337543       -0.12819347145760
H            2.44968987127379       -0.63109459849807        1.15404284853031
H            2.21063508343019       -1.47441146762334       -0.37675133573489
H            1.31311966798665        0.58732990047839       -1.40146969521630
H            1.67422050241646        1.49214581347338        0.06675220378319
H            0.07239115193043       -0.00088336314991        1.31960167099769
H           -1.04582634886443        1.59440926883200       -1.02362515778831
H           -0.54413567218873        2.26470005431222        0.52995658204932
H           -2.27145937642715        0.92784809817985        1.68994720363033
H           -3.00196319851105        1.95047330376691        0.44991896908540
H           -3.07942323393409        0.03398104180949       -1.11233875912692
H           -3.92701263154226       -0.36417457108017        0.38484106880984
H           -1.93289621965982       -1.56471384853459        1.21871051003588
H           -2.43745027148753       -2.22640138908107       -0.33811264935182
H            0.01270274150888       -1.91564260526037       -0.25637835652737
H           -0.70934946168373       -0.88083995462589       -1.49172249777667
