11
Coordinates from ORCA-job optfreq E -343.291073094677
  C          -1.50634516070165      0.11168014086010     -0.60694277068669
  C          -1.47130002722124     -0.52568521290923      0.60140993976009
  O          -0.20560912078518     -0.59746825888113      1.06913612912497
  C           0.59917799153108      0.01243556283752      0.13392184762198
  C          -0.16796233132030      0.46032447904054     -0.91052796678135
  C           2.01839263111342      0.06056108939593      0.41754462498414
  O           2.83217091739845      0.57339284759904     -0.32885655987076
  H          -2.38750321969871      0.30442582892458     -1.20119789038815
  H          -2.23437649180650     -0.96478172865778      1.22681551456383
  H           0.20852740162970      0.97617715039885     -1.78159210559630
  H           2.31482740986092     -0.41106089860840      1.38028923726825
