 Entering Gaussian System
 *********************************************
 Gaussian 98:
 frequency output generated by the xtb code
 *********************************************
                         Standard orientation:
 --------------------------------------------------------------------
  Center     Atomic     Atomic              Coordinates (Angstroms)
  Number     Number      Type              X           Y           Z
 --------------------------------------------------------------------
    1          6             0        2.568826   -0.495139    0.127996
    2          6             0        1.137946   -0.193237   -0.327328
    3          6             0        0.596732    1.079740    0.333646
    4          6             0       -0.877933    1.269793   -0.043092
    5          6             0       -1.663935    0.004986    0.302349
    6          6             0       -0.995910   -1.201217   -0.373912
    7          8             0        0.346394   -1.321414    0.013131
    8          8             0       -1.676603   -2.344135    0.020286
    9          8             0       -2.987921    0.172259   -0.136481
   10          8             0       -1.363824    2.391779    0.651200
   11          8             0        1.368726    2.168137   -0.091476
   12          8             0        3.105007   -1.605805   -0.534416
   13          1             0        2.562408   -0.652823    1.215224
   14          1             0        3.201266    0.359908   -0.111864
   15          1             0        1.126199   -0.053966   -1.419479
   16          1             0        0.656476    0.969883    1.428961
   17          1             0       -0.954167    1.440643   -1.129989
   18          1             0       -1.633657   -0.159697    1.390875
   19          1             0       -1.053586   -1.069879   -1.476989
   20          1             0       -1.101357   -3.105235   -0.120637
   21          1             0       -3.436133   -0.677478   -0.048165
   22          1             0       -2.323507    2.396891    0.551019
   23          1             0        0.902499    2.968504    0.183686
   24          1             0        2.496051   -2.342494   -0.404545
 --------------------------------------------------------------------
     1 basis functions        1 primitive gaussians
     1 alpha electrons        1 beta electrons
 
 Harmonic frequencies (cm**-1), IR intensities (km*mol⁻¹),
 Raman scattering activities (A**4/amu), Raman depolarization ratios,
 reduced masses (AMU), force constants (mDyne/A) and normal coordinates:
                      1                      2                      3
                        a                      a                      a 
 Frequencies --    58.8900                85.1501                98.0054
 Red. masses --    14.0445                12.5477                14.2813
 Frc consts  --     0.0000                 0.0000                 0.0000
 IR Inten    --     0.7338                 3.1661                 1.0039
 Raman Activ --     0.0000                 0.0000                 0.0000
 Depolar     --     0.0000                 0.0000                 0.0000
 Atom AN      X      Y      Z        X      Y      Z        X      Y      Z
   1   6    -0.01   0.03   0.10     0.07   0.10  -0.29    -0.02  -0.01   0.10
   2   6     0.04   0.04  -0.07     0.00   0.11  -0.07    -0.03  -0.09   0.07
   3   6     0.02   0.07  -0.14     0.01   0.06   0.01     0.03   0.01  -0.08
   4   6    -0.03   0.01   0.05    -0.01   0.04   0.07    -0.02   0.03   0.13
   5   6     0.06  -0.03   0.08    -0.01  -0.01  -0.08    -0.08   0.01  -0.06
   6   6     0.02   0.07  -0.14     0.09  -0.02   0.04    -0.02  -0.02   0.05
   7   8     0.02   0.04  -0.16     0.11   0.11   0.06    -0.07  -0.03   0.22
   8   8     0.03   0.01  -0.39     0.19  -0.03   0.17    -0.10   0.01   0.02
   9   8    -0.03  -0.05   0.38     0.07  -0.04  -0.37     0.02   0.08  -0.40
  10   8     0.01  -0.05   0.19    -0.04  -0.08   0.26     0.10  -0.13   0.51
  11   8    -0.07   0.06  -0.41    -0.05   0.14   0.07    -0.02  -0.09  -0.48
  12   8    -0.07  -0.20   0.47    -0.40  -0.39   0.12     0.20   0.20  -0.06
  13   1    -0.03   0.08   0.04     0.10   0.18  -0.06    -0.02  -0.05   0.02
  14   1     0.02  -0.02  -0.02     0.05  -0.04  -0.25    -0.03   0.03   0.08
  15   1     0.04   0.01  -0.02    -0.05   0.03  -0.02    -0.01  -0.06   0.02
  16   1     0.05   0.06  -0.04     0.01  -0.00   0.00     0.06   0.06  -0.02
  17   1    -0.05   0.02   0.02    -0.01   0.05   0.03    -0.04   0.07   0.05
  18   1     0.07  -0.04   0.02    -0.06  -0.00  -0.02    -0.09  -0.00  -0.02
  19   1     0.01   0.07  -0.03     0.03  -0.03   0.01     0.03  -0.02   0.01
  20   1    -0.00   0.01  -0.16     0.05  -0.00   0.04    -0.02  -0.00   0.05
  21   1     0.01  -0.03   0.08     0.01  -0.01  -0.09    -0.01   0.03  -0.13
  22   1    -0.00  -0.03   0.09    -0.01  -0.01   0.05     0.02   0.01   0.12
  23   1    -0.00   0.02  -0.09    -0.01   0.02   0.05     0.04  -0.00  -0.10
  24   1    -0.05  -0.02   0.14    -0.16  -0.03   0.15     0.09   0.01  -0.04
                      4                      5                      6
                        a                      a                      a 
 Frequencies --   141.1819               167.3656               224.1921
 Red. masses --    13.9899                 9.4901                 9.4370
 Frc consts  --     0.0000                 0.0000                 0.0000
 IR Inten    --     2.5659                 0.4597                40.2811
 Raman Activ --     0.0000                 0.0000                 0.0000
 Depolar     --     0.0000                 0.0000                 0.0000
 Atom AN      X      Y      Z        X      Y      Z        X      Y      Z
   1   6     0.08  -0.07  -0.02     0.08   0.31  -0.35     0.00  -0.04  -0.05
   2   6     0.01  -0.00   0.28    -0.10  -0.13  -0.08     0.00  -0.04  -0.06
   3   6     0.03   0.09   0.11    -0.03  -0.13  -0.03    -0.02  -0.08  -0.03
   4   6     0.02  -0.01   0.04    -0.01  -0.02  -0.02    -0.03  -0.07   0.03
   5   6     0.03  -0.02   0.07    -0.04   0.01   0.03    -0.17   0.01   0.08
   6   6     0.14   0.04   0.08    -0.02  -0.01   0.06    -0.07   0.04   0.03
   7   8     0.02   0.07   0.57    -0.05  -0.10   0.23    -0.11   0.07   0.09
   8   8    -0.02  -0.02  -0.44    -0.26   0.07  -0.16     0.21  -0.26  -0.25
   9   8     0.04  -0.09   0.05    -0.05  -0.03   0.03    -0.16   0.12   0.01
  10   8    -0.11   0.06  -0.18     0.12   0.04  -0.03     0.40   0.15  -0.04
  11   8    -0.01   0.04  -0.13     0.08  -0.17   0.15    -0.26   0.10   0.06
  12   8    -0.23  -0.07  -0.31     0.26   0.11   0.17     0.10  -0.05   0.03
  13   1     0.10  -0.04  -0.01     0.13   0.27  -0.07    -0.00   0.01  -0.01
  14   1     0.02  -0.03  -0.03    -0.06   0.10  -0.29    -0.01  -0.01  -0.02
  15   1    -0.04  -0.04   0.07    -0.11  -0.07  -0.03    -0.01  -0.03  -0.02
  16   1     0.01   0.08   0.04    -0.02  -0.07  -0.01     0.00  -0.04  -0.01
  17   1     0.03  -0.04   0.00    -0.01  -0.01  -0.01    -0.02  -0.04   0.01
  18   1     0.00  -0.00   0.02    -0.01   0.01   0.01    -0.07   0.00   0.02
  19   1     0.15   0.07   0.02     0.04   0.02   0.02    -0.02   0.04   0.01
  20   1    -0.00  -0.00  -0.12    -0.14  -0.02  -0.15     0.36   0.07   0.46
  21   1     0.03  -0.04  -0.03    -0.00  -0.01   0.00    -0.04   0.02  -0.08
  22   1    -0.03  -0.01  -0.06     0.03   0.04   0.00     0.10   0.16  -0.03
  23   1    -0.00   0.02  -0.08     0.02  -0.04   0.05    -0.14  -0.01   0.00
  24   1    -0.06  -0.01  -0.04     0.16  -0.02   0.25     0.04  -0.03   0.02
                      7                      8                      9
                        a                      a                      a 
 Frequencies --   226.0878               236.3451               276.7583
 Red. masses --    12.4963                 9.1738                11.7739
 Frc consts  --     0.0000                 0.0000                 0.0000
 IR Inten    --    10.9439                62.5547                30.7618
 Raman Activ --     0.0000                 0.0000                 0.0000
 Depolar     --     0.0000                 0.0000                 0.0000
 Atom AN      X      Y      Z        X      Y      Z        X      Y      Z
   1   6    -0.01   0.09  -0.08     0.09  -0.08  -0.01    -0.13   0.20   0.05
   2   6    -0.06  -0.01   0.02     0.09  -0.01  -0.00    -0.12   0.05   0.06
   3   6     0.05   0.03   0.06     0.05  -0.04   0.05    -0.04  -0.03   0.14
   4   6     0.07  -0.04   0.02     0.06  -0.19   0.10    -0.02  -0.02   0.17
   5   6     0.04  -0.04  -0.04    -0.07  -0.08   0.10    -0.08  -0.05   0.18
   6   6    -0.06  -0.09  -0.06    -0.05  -0.05   0.07    -0.04  -0.03   0.08
   7   8    -0.07   0.01   0.04     0.03   0.02  -0.01     0.02  -0.06  -0.18
   8   8     0.11  -0.23  -0.07     0.04  -0.08   0.09     0.29  -0.26  -0.02
   9   8     0.08   0.58   0.11     0.05   0.39  -0.09     0.01   0.02  -0.13
  10   8    -0.42  -0.24  -0.04     0.09  -0.09  -0.11     0.18   0.22  -0.08
  11   8     0.21  -0.12  -0.05    -0.40   0.26  -0.02     0.19  -0.34  -0.14
  12   8     0.02   0.04   0.04     0.14  -0.09  -0.02    -0.27   0.21   0.03
  13   1     0.03   0.07  -0.02     0.03  -0.03  -0.01    -0.02   0.06   0.02
  14   1    -0.03   0.03  -0.08     0.03  -0.02   0.00    -0.05   0.06  -0.00
  15   1    -0.04   0.00   0.01     0.02   0.01   0.00    -0.03   0.07   0.02
  16   1     0.02   0.02   0.02     0.05  -0.01   0.01     0.01   0.02   0.04
  17   1     0.04  -0.01   0.00     0.02  -0.09   0.02    -0.00  -0.06   0.04
  18   1     0.02  -0.03  -0.01    -0.06  -0.04   0.03    -0.08  -0.02   0.05
  19   1    -0.01  -0.04  -0.02    -0.02   0.00   0.02    -0.06   0.04   0.03
  20   1     0.17   0.00   0.22    -0.20  -0.08  -0.50     0.02  -0.05  -0.30
  21   1    -0.10   0.21   0.04    -0.12   0.18   0.07    -0.04   0.04   0.01
  22   1    -0.11  -0.19  -0.01     0.03  -0.00  -0.06     0.06   0.18  -0.13
  23   1     0.10   0.00  -0.03    -0.22   0.01  -0.04     0.14  -0.03  -0.04
  24   1     0.03  -0.00   0.06     0.06  -0.04   0.03    -0.12   0.08  -0.03
                     10                     11                     12
                        a                      a                      a 
 Frequencies --   299.4682               317.7309               368.8550
 Red. masses --    10.6599                12.0348                 8.0098
 Frc consts  --     0.0000                 0.0000                 0.0000
 IR Inten    --    10.0046                10.7651                35.0225
 Raman Activ --     0.0000                 0.0000                 0.0000
 Depolar     --     0.0000                 0.0000                 0.0000
 Atom AN      X      Y      Z        X      Y      Z        X      Y      Z
   1   6     0.10   0.02  -0.08    -0.11   0.23   0.08     0.25   0.04   0.03
   2   6     0.02   0.00   0.08    -0.07   0.00   0.07     0.11  -0.00   0.29
   3   6     0.05  -0.03   0.27     0.01  -0.00   0.02    -0.09  -0.06   0.21
   4   6     0.05  -0.05   0.31     0.14  -0.09  -0.09    -0.04   0.02  -0.03
   5   6     0.05  -0.02   0.25     0.22  -0.10  -0.12    -0.07   0.02  -0.26
   6   6    -0.01   0.08   0.06     0.06  -0.21  -0.10     0.05   0.03  -0.23
   7   8     0.06  -0.18  -0.33     0.05  -0.19   0.02     0.05  -0.06  -0.09
   8   8    -0.25   0.17  -0.05    -0.30  -0.03  -0.02     0.05   0.18   0.08
   9   8     0.20  -0.05  -0.12     0.26   0.10   0.07    -0.21  -0.01   0.05
  10   8    -0.21   0.14  -0.14     0.33  -0.13   0.00     0.02  -0.02   0.10
  11   8    -0.16  -0.04  -0.15    -0.16   0.13   0.03    -0.16  -0.20  -0.12
  12   8     0.09  -0.06   0.02    -0.34   0.24   0.04    -0.01  -0.04  -0.09
  13   1     0.08   0.05  -0.01    -0.01   0.08   0.03     0.19   0.05   0.01
  14   1     0.01   0.00  -0.08    -0.05   0.07  -0.00     0.05   0.00  -0.09
  15   1    -0.00   0.09   0.03    -0.02  -0.01   0.02     0.06   0.06   0.09
  16   1     0.09   0.03   0.08    -0.01   0.01   0.01    -0.05   0.05   0.07
  17   1     0.06  -0.09   0.07     0.04  -0.01  -0.02     0.06   0.05  -0.00
  18   1    -0.05  -0.04   0.07     0.10  -0.05  -0.04     0.02  -0.03  -0.08
  19   1    -0.07   0.08   0.02     0.04  -0.10  -0.03     0.03  -0.05  -0.07
  20   1     0.03   0.06   0.28    -0.07  -0.04   0.19     0.02   0.03   0.10
  21   1     0.11  -0.07  -0.25     0.02   0.05   0.04    -0.15   0.09   0.42
  22   1    -0.05  -0.02  -0.09     0.08  -0.00   0.03     0.04   0.20  -0.25
  23   1    -0.10  -0.00  -0.16    -0.15   0.00  -0.10    -0.00  -0.03  -0.03
  24   1     0.02  -0.01   0.02    -0.19   0.13  -0.10     0.03  -0.01   0.10
                     13                     14                     15
                        a                      a                      a 
 Frequencies --   376.9982               391.7290               398.6724
 Red. masses --     4.4092                 6.9522                 9.6456
 Frc consts  --     0.0000                 0.0000                 0.0000
 IR Inten    --    40.1452                39.4004                27.1024
 Raman Activ --     0.0000                 0.0000                 0.0000
 Depolar     --     0.0000                 0.0000                 0.0000
 Atom AN      X      Y      Z        X      Y      Z        X      Y      Z
   1   6    -0.07  -0.03  -0.05    -0.11  -0.08   0.02     0.18   0.12   0.02
   2   6    -0.04   0.03  -0.12    -0.11   0.08   0.10     0.15   0.13   0.10
   3   6     0.09   0.09  -0.06     0.14   0.20   0.13     0.16   0.04   0.10
   4   6     0.04  -0.02   0.07     0.13   0.02   0.04     0.10  -0.24   0.00
   5   6     0.06  -0.05   0.10     0.04  -0.06  -0.10    -0.21  -0.09  -0.04
   6   6    -0.04  -0.06   0.07    -0.15  -0.13  -0.13    -0.15   0.02  -0.06
   7   8    -0.01   0.02   0.04    -0.19   0.08  -0.08    -0.10   0.24  -0.03
   8   8    -0.19  -0.07  -0.09    -0.06  -0.20   0.06    -0.12   0.03   0.08
   9   8     0.14  -0.07  -0.06    -0.02  -0.15   0.04    -0.34  -0.02   0.11
  10   8    -0.10  -0.09   0.08     0.09   0.01   0.02     0.16  -0.28  -0.10
  11   8     0.01   0.21  -0.07     0.18   0.24  -0.00     0.13   0.03  -0.10
  12   8     0.09  -0.03   0.07    -0.06   0.04  -0.13    -0.01   0.03   0.04
  13   1    -0.07  -0.02  -0.01    -0.01  -0.03   0.00     0.10   0.07   0.01
  14   1    -0.01  -0.01   0.02    -0.05  -0.01   0.00     0.05   0.02  -0.05
  15   1    -0.03  -0.01  -0.04    -0.02   0.06   0.03     0.06   0.07   0.03
  16   1     0.06   0.00  -0.02     0.05   0.10   0.04     0.05   0.04   0.03
  17   1     0.01  -0.02   0.02     0.07   0.01   0.01     0.07  -0.08  -0.01
  18   1    -0.00   0.00   0.03     0.03  -0.04  -0.03    -0.06  -0.06  -0.02
  19   1    -0.01   0.00   0.02    -0.06  -0.08  -0.04    -0.04  -0.02  -0.02
  20   1    -0.02  -0.02   0.09    -0.01  -0.04  -0.03    -0.06  -0.01  -0.01
  21   1    -0.03   0.04   0.20     0.05  -0.08  -0.07     0.04  -0.11  -0.37
  22   1     0.04   0.31  -0.55     0.03   0.08  -0.11     0.04  -0.08  -0.00
  23   1     0.24   0.03   0.45    -0.03   0.07  -0.15     0.17   0.01   0.18
  24   1    -0.05   0.03  -0.13     0.36  -0.20   0.52    -0.16   0.11  -0.17
                     16                     17                     18
                        a                      a                      a 
 Frequencies --   412.5481               440.7770               445.5948
 Red. masses --     6.0519                 6.0317                 8.6582
 Frc consts  --     0.0000                 0.0000                 0.0000
 IR Inten    --   104.0759               254.6497               251.0229
 Raman Activ --     0.0000                 0.0000                 0.0000
 Depolar     --     0.0000                 0.0000                 0.0000
 Atom AN      X      Y      Z        X      Y      Z        X      Y      Z
   1   6    -0.01  -0.01   0.10     0.06  -0.02  -0.04    -0.02   0.06   0.12
   2   6     0.00  -0.06   0.06    -0.03   0.02   0.14     0.10   0.05  -0.11
   3   6    -0.14  -0.10  -0.05     0.04   0.11   0.13     0.06  -0.09  -0.09
   4   6    -0.07   0.04  -0.08     0.01   0.08   0.07     0.04  -0.25  -0.00
   5   6     0.09   0.02  -0.04     0.01  -0.01  -0.04    -0.08  -0.02   0.23
   6   6     0.12   0.01  -0.03    -0.08  -0.13  -0.04     0.00   0.20   0.13
   7   8     0.10  -0.14  -0.02    -0.06  -0.09  -0.06     0.04   0.14  -0.05
   8   8     0.10   0.08   0.06    -0.10  -0.21  -0.03    -0.05   0.23  -0.08
   9   8     0.09   0.20   0.15     0.02  -0.10  -0.13     0.05  -0.09  -0.20
  10   8     0.01   0.04  -0.02     0.07   0.30  -0.14     0.08  -0.28  -0.12
  11   8    -0.29  -0.10  -0.12    -0.07   0.14  -0.13     0.03  -0.07  -0.00
  12   8    -0.16   0.07  -0.12     0.10  -0.06   0.02    -0.25   0.15  -0.10
  13   1     0.02  -0.02   0.02     0.07   0.02  -0.01    -0.04  -0.02   0.03
  14   1    -0.01  -0.00   0.02    -0.00  -0.00  -0.06     0.02   0.01   0.08
  15   1     0.03  -0.03   0.02    -0.02   0.04   0.04     0.08  -0.01  -0.03
  16   1    -0.06  -0.03  -0.01     0.04   0.07   0.04     0.03  -0.06  -0.03
  17   1    -0.02   0.02  -0.02     0.03   0.01   0.02    -0.02  -0.13  -0.01
  18   1     0.05  -0.01  -0.01    -0.01  -0.02  -0.01    -0.08   0.03   0.07
  19   1     0.05  -0.01  -0.01    -0.04  -0.05  -0.01    -0.03   0.13   0.05
  20   1    -0.00   0.01  -0.03    -0.00  -0.04   0.03     0.05   0.08   0.12
  21   1     0.12  -0.05  -0.40    -0.09   0.06   0.30    -0.12   0.09   0.35
  22   1     0.00   0.02   0.01    -0.04  -0.26   0.49     0.00  -0.18   0.13
  23   1     0.22  -0.04   0.52     0.22   0.03   0.38     0.05  -0.02   0.10
  24   1     0.16  -0.09   0.30    -0.02   0.01  -0.07     0.14  -0.07   0.33
                     19                     20                     21
                        a                      a                      a 
 Frequencies --   483.0168               532.2347               572.7529
 Red. masses --    11.4944                10.4245                11.7204
 Frc consts  --     0.0000                 0.0000                 0.0000
 IR Inten    --    10.1874                20.2578                13.0695
 Raman Activ --     0.0000                 0.0000                 0.0000
 Depolar     --     0.0000                 0.0000                 0.0000
 Atom AN      X      Y      Z        X      Y      Z        X      Y      Z
   1   6    -0.32  -0.05  -0.15    -0.00  -0.01   0.01    -0.01  -0.08  -0.10
   2   6    -0.22  -0.01  -0.13     0.10   0.15  -0.24    -0.09   0.32   0.13
   3   6     0.10  -0.12   0.25    -0.01  -0.00  -0.05    -0.34   0.16   0.09
   4   6     0.19  -0.08   0.18    -0.17  -0.08   0.28    -0.21  -0.08  -0.19
   5   6     0.09  -0.03  -0.14    -0.11  -0.29  -0.06     0.11  -0.12   0.11
   6   6     0.06   0.12  -0.24     0.23  -0.22  -0.15    -0.02  -0.02   0.01
   7   8    -0.17   0.21   0.19     0.30   0.14   0.12    -0.02   0.33  -0.02
   8   8     0.24   0.27   0.10    -0.19   0.05   0.02    -0.10  -0.02  -0.01
   9   8     0.08  -0.09   0.03    -0.15   0.11   0.04     0.33   0.03  -0.01
  10   8     0.04  -0.02  -0.11    -0.03   0.30  -0.05     0.18  -0.15  -0.01
  11   8    -0.19  -0.14  -0.09     0.11  -0.07   0.02    -0.03  -0.24   0.01
  12   8     0.08   0.01   0.11    -0.03  -0.00  -0.01     0.20  -0.15   0.01
  13   1    -0.18  -0.02  -0.04    -0.13  -0.07  -0.01    -0.02  -0.04  -0.03
  14   1    -0.09   0.00   0.02     0.07  -0.03   0.12     0.03  -0.04  -0.01
  15   1    -0.16   0.03  -0.03     0.02   0.02  -0.07    -0.06   0.18   0.05
  16   1     0.11  -0.06   0.06     0.06  -0.06  -0.02    -0.22   0.11   0.04
  17   1     0.16  -0.03   0.04    -0.09  -0.06   0.07    -0.14  -0.06  -0.05
  18   1     0.06  -0.10  -0.05    -0.06  -0.24  -0.04     0.06  -0.02   0.03
  19   1     0.06  -0.02  -0.08     0.14  -0.14  -0.05    -0.03   0.00   0.00
  20   1     0.03   0.05  -0.03    -0.14  -0.08   0.13    -0.03  -0.01   0.03
  21   1     0.03  -0.03   0.06    -0.12   0.07  -0.03     0.02   0.04  -0.02
  22   1     0.01  -0.09   0.01    -0.01   0.07   0.05     0.04   0.07   0.06
  23   1    -0.00  -0.04   0.07     0.03   0.00  -0.05     0.10   0.02  -0.05
  24   1     0.01  -0.01  -0.09     0.04  -0.03   0.09     0.05  -0.05  -0.05
                     22                     23                     24
                        a                      a                      a 
 Frequencies --   606.7896               612.2141               889.7602
 Red. masses --    11.0818                12.4596                 7.0067
 Frc consts  --     0.0000                 0.0000                 0.0000
 IR Inten    --    10.9037                18.4025                36.7429
 Raman Activ --     0.0000                 0.0000                 0.0000
 Depolar     --     0.0000                 0.0000                 0.0000
 Atom AN      X      Y      Z        X      Y      Z        X      Y      Z
   1   6    -0.17  -0.04  -0.12    -0.21  -0.07  -0.10    -0.36  -0.23   0.12
   2   6    -0.06   0.20  -0.09    -0.22  -0.09   0.19     0.00  -0.08   0.17
   3   6     0.02   0.02   0.27    -0.05   0.23  -0.01     0.08  -0.08  -0.13
   4   6     0.17   0.08  -0.14    -0.14  -0.14  -0.02     0.04   0.00  -0.01
   5   6    -0.07   0.22  -0.12    -0.12  -0.14   0.08    -0.00  -0.02   0.01
   6   6     0.16  -0.07   0.34     0.19   0.06  -0.03     0.16  -0.05   0.08
   7   8     0.40  -0.07  -0.06     0.12  -0.41  -0.07     0.16   0.34  -0.14
   8   8    -0.13  -0.13  -0.12     0.18   0.30   0.01    -0.05  -0.04  -0.02
   9   8    -0.29   0.04   0.04    -0.16   0.07  -0.01    -0.04   0.01  -0.00
  10   8     0.05  -0.14   0.01     0.12  -0.14  -0.06    -0.04   0.06   0.03
  11   8    -0.10  -0.09  -0.07     0.22   0.29   0.02    -0.01  -0.03   0.02
  12   8     0.04  -0.03   0.04     0.08  -0.04   0.03    -0.01   0.08   0.01
  13   1    -0.18  -0.07  -0.04    -0.02   0.01  -0.02     0.29   0.22   0.07
  14   1     0.02  -0.03   0.09    -0.10  -0.00  -0.06    -0.30  -0.02  -0.39
  15   1    -0.11   0.16  -0.01    -0.13  -0.00   0.05     0.21  -0.01   0.04
  16   1     0.01   0.03   0.07    -0.05   0.16   0.01     0.02  -0.04  -0.03
  17   1     0.18   0.08  -0.04    -0.11  -0.10  -0.01    -0.01   0.01   0.00
  18   1    -0.04   0.23  -0.01    -0.07  -0.09   0.01    -0.02   0.02   0.01
  19   1     0.06   0.00   0.09     0.08   0.06  -0.01     0.03  -0.02   0.02
  20   1    -0.03  -0.04   0.02     0.02   0.05   0.03    -0.08  -0.07   0.04
  21   1    -0.00  -0.03   0.01    -0.10   0.05  -0.03    -0.02   0.01  -0.00
  22   1     0.01  -0.07  -0.01     0.03   0.03   0.04    -0.01  -0.02  -0.02
  23   1     0.01   0.00  -0.02     0.08   0.09   0.00    -0.06  -0.05   0.03
  24   1     0.06  -0.04   0.03     0.04  -0.04  -0.06     0.13  -0.13  -0.19
                     25                     26                     27
                        a                      a                      a 
 Frequencies --   999.3667              1011.7415              1029.2744
 Red. masses --    10.1220                 9.1906                 9.7084
 Frc consts  --     0.0000                 0.0000                 0.0000
 IR Inten    --    14.4089                37.8082                 3.6169
 Raman Activ --     0.0000                 0.0000                 0.0000
 Depolar     --     0.0000                 0.0000                 0.0000
 Atom AN      X      Y      Z        X      Y      Z        X      Y      Z
   1   6     0.06   0.04   0.14     0.04  -0.07   0.18    -0.10  -0.08  -0.11
   2   6    -0.17   0.09  -0.04     0.01  -0.02  -0.28     0.23  -0.10  -0.04
   3   6    -0.34   0.19  -0.25    -0.21   0.10   0.15     0.10  -0.07   0.22
   4   6     0.21   0.08   0.39    -0.22  -0.12   0.25    -0.36  -0.12   0.02
   5   6     0.08   0.32   0.13     0.02  -0.02  -0.45    -0.09   0.44   0.11
   6   6     0.09  -0.05  -0.21    -0.07   0.13   0.33     0.02   0.03  -0.34
   7   8     0.02  -0.04   0.03    -0.03  -0.08  -0.00     0.10  -0.02   0.10
   8   8    -0.00  -0.09   0.03    -0.05   0.01  -0.02    -0.04  -0.16   0.06
   9   8    -0.16   0.03  -0.06     0.14   0.01   0.09     0.08   0.06  -0.02
  10   8     0.12  -0.17  -0.11     0.06  -0.10  -0.11    -0.01  -0.14  -0.07
  11   8    -0.07  -0.08   0.07     0.03   0.07  -0.01     0.06   0.08  -0.04
  12   8     0.05  -0.09  -0.06    -0.02   0.03  -0.03    -0.06   0.10   0.06
  13   1     0.09   0.03   0.04     0.12   0.11   0.06    -0.06   0.02  -0.02
  14   1     0.02  -0.01  -0.03    -0.01  -0.05  -0.14    -0.03  -0.02  -0.04
  15   1     0.03  -0.08  -0.03     0.10  -0.09  -0.08     0.06   0.00  -0.00
  16   1    -0.06  -0.02  -0.07     0.09  -0.06   0.02     0.06   0.01   0.05
  17   1     0.03  -0.07   0.08     0.10  -0.01   0.05    -0.14  -0.13  -0.01
  18   1    -0.06  -0.01   0.02     0.03  -0.02  -0.11     0.00   0.14   0.03
  19   1     0.03  -0.05  -0.05     0.02  -0.02   0.07     0.02  -0.06  -0.09
  20   1    -0.07  -0.08   0.03     0.17   0.15  -0.10    -0.06  -0.08   0.02
  21   1     0.19  -0.10   0.09     0.06  -0.01   0.03     0.27  -0.11   0.09
  22   1     0.04  -0.23  -0.15     0.00   0.13   0.08    -0.02   0.21   0.13
  23   1     0.11   0.08  -0.06     0.17   0.14  -0.10     0.02   0.02  -0.01
  24   1     0.02  -0.03  -0.03     0.05  -0.05  -0.07     0.02  -0.01  -0.02
                     28                     29                     30
                        a                      a                      a 
 Frequencies --  1043.8776              1051.6706              1070.1337
 Red. masses --     9.2115                 9.3852                 8.6480
 Frc consts  --     0.0000                 0.0000                 0.0000
 IR Inten    --    13.5433                95.4925               116.1670
 Raman Activ --     0.0000                 0.0000                 0.0000
 Depolar     --     0.0000                 0.0000                 0.0000
 Atom AN      X      Y      Z        X      Y      Z        X      Y      Z
   1   6     0.14  -0.03   0.19    -0.10  -0.18  -0.07    -0.21   0.28   0.01
   2   6    -0.07  -0.17  -0.35     0.33   0.08  -0.18     0.10  -0.34  -0.00
   3   6    -0.08   0.08   0.34    -0.07   0.17   0.11    -0.13   0.05   0.13
   4   6    -0.01   0.12  -0.21     0.17   0.15  -0.14     0.04   0.08  -0.02
   5   6    -0.05  -0.08   0.25     0.03  -0.13   0.21    -0.06  -0.05   0.04
   6   6     0.29  -0.18  -0.04    -0.28   0.03  -0.19    -0.18   0.08  -0.08
   7   8    -0.28   0.06  -0.04     0.15  -0.21   0.21     0.31   0.17   0.02
   8   8     0.12   0.08  -0.04    -0.03   0.02   0.05    -0.07  -0.04   0.03
   9   8    -0.02  -0.01  -0.02    -0.06  -0.04  -0.05     0.05  -0.03   0.01
  10   8     0.01  -0.04   0.02     0.02   0.03   0.05     0.02  -0.02  -0.00
  11   8    -0.02   0.07  -0.04    -0.11  -0.08   0.03    -0.02   0.06  -0.00
  12   8    -0.01   0.01  -0.04    -0.10   0.20   0.09     0.13  -0.29  -0.14
  13   1     0.10   0.07   0.06    -0.04   0.14   0.01    -0.03  -0.11  -0.03
  14   1    -0.02   0.00  -0.05     0.10  -0.17  -0.16    -0.31   0.29   0.13
  15   1     0.02  -0.09  -0.09     0.12  -0.03  -0.05     0.20  -0.14  -0.01
  16   1     0.02  -0.04   0.07    -0.13   0.04   0.04    -0.07   0.03   0.04
  17   1     0.15   0.06  -0.06     0.04   0.04  -0.03     0.10   0.03  -0.01
  18   1    -0.01   0.15   0.09     0.03  -0.13   0.03     0.01  -0.07   0.00
  19   1     0.03   0.04  -0.01    -0.06   0.03  -0.04    -0.03   0.02  -0.01
  20   1    -0.24  -0.21   0.13     0.14   0.13  -0.07     0.07   0.06  -0.03
  21   1    -0.12   0.05  -0.05    -0.13   0.05  -0.06    -0.06   0.03  -0.03
  22   1    -0.00   0.05   0.05     0.01  -0.11  -0.07     0.01  -0.02  -0.01
  23   1     0.14   0.13  -0.08     0.12   0.09  -0.07     0.13   0.11  -0.07
  24   1    -0.02   0.02   0.01     0.14  -0.12  -0.14    -0.14   0.11   0.14
                     31                     32                     33
                        a                      a                      a 
 Frequencies --  1091.8632              1105.0870              1114.7434
 Red. masses --    10.2562                11.5430                11.1143
 Frc consts  --     0.0000                 0.0000                 0.0000
 IR Inten    --    98.2608                10.6230               234.9124
 Raman Activ --     0.0000                 0.0000                 0.0000
 Depolar     --     0.0000                 0.0000                 0.0000
 Atom AN      X      Y      Z        X      Y      Z        X      Y      Z
   1   6     0.14   0.03   0.31     0.25  -0.32  -0.20     0.07  -0.10  -0.07
   2   6    -0.44   0.06  -0.08    -0.12  -0.35   0.05    -0.05  -0.06   0.04
   3   6     0.09  -0.15   0.05    -0.11  -0.09   0.04    -0.30  -0.16  -0.07
   4   6    -0.11   0.17  -0.07    -0.04   0.29   0.10     0.22  -0.33  -0.04
   5   6    -0.05   0.02   0.14     0.00  -0.05  -0.02    -0.42   0.07  -0.06
   6   6    -0.31  -0.09  -0.18     0.08   0.22   0.02    -0.15  -0.16  -0.06
   7   8     0.38   0.04   0.09     0.14   0.24  -0.10     0.13   0.06   0.00
   8   8    -0.00   0.07   0.00    -0.11  -0.16   0.06     0.09   0.11  -0.05
   9   8     0.04  -0.03  -0.01     0.01  -0.02   0.01     0.29  -0.03   0.11
  10   8     0.01  -0.11  -0.06     0.09  -0.15  -0.10    -0.06   0.23   0.15
  11   8     0.08   0.07  -0.06     0.04   0.10  -0.03     0.11   0.17  -0.05
  12   8     0.04  -0.08  -0.09    -0.13   0.30   0.18    -0.05   0.10   0.06
  13   1     0.13   0.09   0.09    -0.00  -0.11  -0.04    -0.02  -0.01  -0.01
  14   1     0.07  -0.06  -0.07     0.05  -0.05   0.03     0.07  -0.06  -0.01
  15   1    -0.22   0.06  -0.02    -0.19  -0.04   0.01    -0.06   0.01   0.01
  16   1     0.16  -0.14  -0.01    -0.08   0.05   0.02    -0.15   0.01  -0.01
  17   1     0.03   0.03  -0.03    -0.03   0.07   0.02     0.24   0.02   0.00
  18   1     0.04   0.00   0.03    -0.01  -0.20  -0.03    -0.12   0.18   0.02
  19   1    -0.02  -0.04  -0.04     0.01   0.04   0.01    -0.01  -0.04  -0.02
  20   1     0.12   0.12  -0.05     0.00  -0.01   0.00    -0.05  -0.04   0.03
  21   1    -0.06   0.03  -0.04    -0.07   0.03  -0.02     0.09  -0.02   0.02
  22   1    -0.00   0.09   0.07     0.02  -0.10  -0.06    -0.01  -0.10  -0.05
  23   1    -0.12  -0.09   0.05     0.02   0.03  -0.01     0.08   0.07  -0.04
  24   1     0.04  -0.05  -0.06    -0.06   0.10   0.07     0.02  -0.01  -0.01
                     34                     35                     36
                        a                      a                      a 
 Frequencies --  1120.3789              1143.0058              1149.8627
 Red. masses --    10.7575                 8.4196                11.7706
 Frc consts  --     0.0000                 0.0000                 0.0000
 IR Inten    --    79.3016                43.9949                85.1802
 Raman Activ --     0.0000                 0.0000                 0.0000
 Depolar     --     0.0000                 0.0000                 0.0000
 Atom AN      X      Y      Z        X      Y      Z        X      Y      Z
   1   6    -0.16   0.15   0.00     0.03   0.16   0.25    -0.04   0.04   0.00
   2   6     0.14   0.26   0.10    -0.08  -0.13  -0.18     0.10   0.02  -0.01
   3   6    -0.12  -0.27  -0.02     0.08  -0.02   0.12    -0.30  -0.49   0.15
   4   6    -0.08   0.32   0.04     0.17  -0.19  -0.19    -0.01  -0.04   0.04
   5   6    -0.33  -0.05   0.00    -0.07   0.04  -0.04     0.43  -0.00   0.06
   6   6     0.20   0.22  -0.07     0.20   0.35  -0.03    -0.03  -0.10   0.06
   7   8    -0.15  -0.16   0.04    -0.01   0.00  -0.01    -0.07   0.03   0.04
   8   8    -0.07  -0.16   0.08    -0.15  -0.24   0.11     0.02   0.06  -0.03
   9   8     0.23  -0.07   0.09     0.01   0.03   0.01    -0.28   0.05  -0.12
  10   8     0.08  -0.15  -0.10    -0.06   0.17   0.14     0.01   0.06   0.03
  11   8     0.13   0.14  -0.09     0.01   0.02  -0.03     0.23   0.33  -0.17
  12   8     0.04  -0.11  -0.05     0.02  -0.12  -0.12     0.00  -0.03  -0.01
  13   1    -0.04   0.04  -0.00    -0.07   0.18   0.08    -0.03   0.02   0.00
  14   1     0.05  -0.03  -0.00     0.08  -0.04  -0.04    -0.01   0.01  -0.00
  15   1     0.11   0.07   0.03    -0.21   0.07  -0.03     0.04   0.18   0.02
  16   1     0.07  -0.17  -0.03    -0.24   0.17   0.06    -0.18  -0.10   0.03
  17   1     0.16   0.18   0.01    -0.18  -0.12  -0.04    -0.09  -0.06   0.01
  18   1    -0.08  -0.09  -0.00    -0.07  -0.27  -0.05     0.13   0.01   0.01
  19   1     0.04   0.08  -0.01     0.08   0.04  -0.01    -0.04  -0.03   0.02
  20   1    -0.05  -0.06   0.02     0.04   0.01  -0.03     0.05   0.05  -0.02
  21   1    -0.12   0.07  -0.04     0.12  -0.05   0.06     0.01  -0.02   0.01
  22   1     0.02  -0.10  -0.06    -0.01  -0.08  -0.06     0.01  -0.07  -0.05
  23   1    -0.06  -0.03   0.02    -0.04  -0.03   0.03    -0.00   0.03   0.00
  24   1     0.08  -0.09  -0.07     0.08  -0.10  -0.09     0.03  -0.03  -0.03
                     37                     38                     39
                        a                      a                      a 
 Frequencies --  1163.0831              1180.3020              1205.4012
 Red. masses --     6.7601                 5.8676                 3.6449
 Frc consts  --     0.0000                 0.0000                 0.0000
 IR Inten    --    29.5639                54.9562                48.3128
 Raman Activ --     0.0000                 0.0000                 0.0000
 Depolar     --     0.0000                 0.0000                 0.0000
 Atom AN      X      Y      Z        X      Y      Z        X      Y      Z
   1   6    -0.01  -0.05   0.04     0.07  -0.28  -0.03    -0.03   0.12  -0.11
   2   6     0.10  -0.01  -0.14    -0.12   0.31  -0.11    -0.07  -0.02   0.19
   3   6     0.13  -0.03   0.12    -0.02  -0.02   0.01    -0.03  -0.02   0.03
   4   6    -0.01   0.29   0.02     0.09  -0.11  -0.18     0.09   0.11  -0.20
   5   6    -0.22   0.09  -0.04    -0.04   0.04   0.09     0.01   0.01   0.11
   6   6    -0.11  -0.30   0.18     0.10   0.15  -0.07     0.01  -0.07   0.14
   7   8    -0.09  -0.03  -0.01    -0.04  -0.16   0.08    -0.02   0.08  -0.11
   8   8     0.12   0.22  -0.12    -0.10  -0.10   0.07     0.02   0.06  -0.06
   9   8     0.14   0.00   0.07    -0.02   0.01  -0.02    -0.06   0.08  -0.03
  10   8     0.08  -0.08  -0.05    -0.05   0.09   0.10    -0.07  -0.03   0.04
  11   8    -0.01  -0.01  -0.03    -0.00   0.02  -0.02    -0.02   0.03  -0.02
  12   8     0.01  -0.00  -0.02     0.04   0.08   0.06    -0.02   0.00   0.04
  13   1     0.04   0.01   0.01     0.31  -0.20  -0.02    -0.05  -0.05  -0.04
  14   1    -0.13   0.08  -0.02    -0.32   0.18  -0.01     0.20  -0.10   0.05
  15   1     0.04   0.18  -0.01     0.10   0.14  -0.02     0.11  -0.26   0.01
  16   1    -0.17   0.09   0.05     0.08  -0.24  -0.03     0.08  -0.28  -0.03
  17   1    -0.35  -0.00   0.01     0.04  -0.10  -0.06     0.18  -0.17  -0.09
  18   1    -0.23  -0.21  -0.03     0.01  -0.14  -0.00    -0.18  -0.44  -0.03
  19   1     0.10  -0.27   0.01     0.12  -0.04  -0.02     0.02  -0.19   0.01
  20   1     0.03   0.04  -0.01     0.13   0.10  -0.07     0.03   0.03  -0.02
  21   1     0.16  -0.06   0.07     0.04  -0.02   0.02     0.27  -0.12   0.12
  22   1     0.03  -0.21  -0.14    -0.01   0.02   0.01    -0.03   0.22   0.15
  23   1    -0.06  -0.05   0.03     0.06   0.05  -0.04     0.09   0.08  -0.06
  24   1    -0.06   0.06   0.06    -0.20   0.22   0.19     0.09  -0.09  -0.08
                     40                     41                     42
                        a                      a                      a 
 Frequencies --  1219.1108              1222.9132              1257.6896
 Red. masses --     2.6549                 3.7209                 3.8021
 Frc consts  --     0.0000                 0.0000                 0.0000
 IR Inten    --    33.8619                27.6430                67.4778
 Raman Activ --     0.0000                 0.0000                 0.0000
 Depolar     --     0.0000                 0.0000                 0.0000
 Atom AN      X      Y      Z        X      Y      Z        X      Y      Z
   1   6     0.02  -0.07   0.01     0.01   0.06  -0.03     0.02  -0.08   0.13
   2   6     0.06  -0.01  -0.16     0.01  -0.09   0.03     0.31  -0.01   0.09
   3   6    -0.16   0.02  -0.10    -0.04   0.02  -0.03     0.06  -0.08  -0.22
   4   6     0.06   0.06   0.07    -0.03  -0.04   0.02     0.01   0.03   0.04
   5   6     0.02  -0.02   0.09    -0.09   0.18   0.17    -0.01   0.00   0.08
   6   6    -0.01  -0.01   0.02     0.23  -0.07   0.00     0.02  -0.04   0.03
   7   8    -0.03  -0.04   0.06    -0.13   0.08  -0.11    -0.05   0.01  -0.03
   8   8     0.02   0.01  -0.01    -0.15   0.01   0.01     0.00   0.03  -0.02
   9   8    -0.04   0.04  -0.03     0.03  -0.09  -0.01    -0.02   0.02  -0.02
  10   8    -0.06  -0.10  -0.05     0.01   0.00   0.03    -0.04  -0.06  -0.05
  11   8     0.13  -0.03  -0.01     0.01  -0.01   0.02    -0.12  -0.01   0.08
  12   8     0.01   0.02  -0.01    -0.02  -0.00   0.01     0.01  -0.03  -0.08
  13   1    -0.00   0.03   0.01    -0.06   0.01  -0.01    -0.17   0.21   0.07
  14   1    -0.08   0.04  -0.03     0.07  -0.03   0.02    -0.22   0.12  -0.05
  15   1     0.11   0.15  -0.02     0.04  -0.04   0.00    -0.57   0.22   0.06
  16   1    -0.13   0.46   0.02     0.06   0.13   0.00    -0.01  -0.08  -0.06
  17   1     0.45   0.01  -0.02     0.10  -0.08  -0.01     0.17   0.11   0.01
  18   1    -0.03  -0.17  -0.00     0.23   0.11   0.05     0.03  -0.08   0.01
  19   1     0.02   0.01   0.01     0.24  -0.52  -0.07    -0.03  -0.09  -0.00
  20   1    -0.01  -0.01   0.01     0.31   0.30  -0.19     0.02   0.02  -0.01
  21   1     0.10  -0.05   0.05    -0.27   0.12  -0.12     0.04  -0.02   0.02
  22   1    -0.03   0.30   0.21     0.00  -0.05  -0.02    -0.02   0.17   0.11
  23   1    -0.32  -0.27   0.19    -0.02  -0.02   0.02     0.26   0.21  -0.15
  24   1    -0.05   0.05   0.04     0.03  -0.04  -0.04    -0.03   0.03   0.03
                     43                     44                     45
                        a                      a                      a 
 Frequencies --  1269.7766              1280.8918              1284.2867
 Red. masses --     3.8735                 3.9614                 3.1008
 Frc consts  --     0.0000                 0.0000                 0.0000
 IR Inten    --    94.9489                82.1015                26.9771
 Raman Activ --     0.0000                 0.0000                 0.0000
 Depolar     --     0.0000                 0.0000                 0.0000
 Atom AN      X      Y      Z        X      Y      Z        X      Y      Z
   1   6     0.02  -0.01  -0.00    -0.01   0.03  -0.02     0.00   0.10  -0.04
   2   6     0.02   0.02   0.01    -0.09  -0.06  -0.00    -0.13  -0.23  -0.01
   3   6     0.02   0.02   0.03     0.10  -0.02  -0.07     0.06  -0.04  -0.11
   4   6     0.05   0.07   0.04     0.28   0.08   0.15    -0.02  -0.01  -0.03
   5   6     0.09  -0.25   0.00     0.05   0.15  -0.10    -0.02  -0.16   0.08
   6   6     0.23  -0.13  -0.17    -0.06   0.05  -0.02    -0.08  -0.04  -0.02
   7   8    -0.05   0.06  -0.01    -0.01  -0.03   0.03    -0.04   0.02  -0.00
   8   8    -0.17  -0.00   0.10     0.03  -0.02  -0.00    -0.04  -0.02   0.08
   9   8    -0.02   0.06   0.06     0.07  -0.14   0.09    -0.04   0.08  -0.04
  10   8    -0.01  -0.03  -0.05    -0.10  -0.11  -0.06     0.00  -0.00  -0.03
  11   8     0.02   0.01  -0.04    -0.05   0.02  -0.02    -0.09  -0.01   0.08
  12   8    -0.01  -0.00   0.00     0.01   0.01   0.00    -0.02   0.00   0.02
  13   1    -0.01   0.00  -0.00     0.02  -0.02  -0.01     0.01  -0.05  -0.02
  14   1    -0.04   0.03   0.01     0.07  -0.05   0.01     0.14  -0.07   0.03
  15   1    -0.06  -0.13  -0.01     0.14   0.22   0.03     0.26   0.50   0.06
  16   1    -0.16  -0.07   0.01    -0.36  -0.17  -0.01     0.14   0.07  -0.03
  17   1    -0.02   0.11   0.03    -0.14  -0.27   0.00     0.01   0.23   0.03
  18   1    -0.54   0.37   0.07    -0.18   0.08  -0.01     0.03   0.06   0.03
  19   1    -0.08   0.10  -0.02     0.11  -0.02  -0.01     0.47   0.19  -0.00
  20   1     0.30   0.29  -0.16    -0.07  -0.07   0.04     0.07   0.06  -0.02
  21   1     0.15  -0.06   0.07    -0.35   0.15  -0.14     0.21  -0.09   0.09
  22   1    -0.01   0.08   0.05    -0.04   0.36   0.24    -0.00   0.01   0.01
  23   1    -0.05  -0.04   0.03     0.09   0.08  -0.05     0.17   0.15  -0.10
  24   1    -0.00  -0.00  -0.01    -0.00   0.00   0.01     0.05  -0.05  -0.04
                     46                     47                     48
                        a                      a                      a 
 Frequencies --  1303.3162              1309.0682              1318.5545
 Red. masses --     2.8533                 2.9946                 3.3192
 Frc consts  --     0.0000                 0.0000                 0.0000
 IR Inten    --    36.7620                53.0902                12.4530
 Raman Activ --     0.0000                 0.0000                 0.0000
 Depolar     --     0.0000                 0.0000                 0.0000
 Atom AN      X      Y      Z        X      Y      Z        X      Y      Z
   1   6    -0.03  -0.03   0.00    -0.01   0.17  -0.05    -0.10  -0.10   0.03
   2   6    -0.02   0.14   0.02    -0.05  -0.04  -0.11    -0.20  -0.03   0.05
   3   6     0.17   0.05   0.06     0.12  -0.04  -0.04     0.13  -0.06  -0.04
   4   6     0.02  -0.12   0.12     0.01  -0.09   0.03    -0.07  -0.09  -0.00
   5   6    -0.11  -0.00   0.09    -0.06   0.02   0.04     0.00   0.01   0.03
   6   6    -0.07  -0.04   0.03     0.15   0.04   0.00     0.15   0.06  -0.00
   7   8    -0.01  -0.00  -0.10     0.02  -0.03   0.09     0.04  -0.01   0.09
   8   8     0.00  -0.00   0.02     0.00   0.03  -0.05    -0.01   0.02  -0.05
   9   8    -0.03   0.04  -0.07    -0.01   0.02  -0.02    -0.01   0.02  -0.01
  10   8    -0.01  -0.04  -0.10    -0.02  -0.03  -0.06     0.00   0.01  -0.02
  11   8     0.03   0.02  -0.09    -0.05  -0.00   0.03    -0.04   0.01   0.02
  12   8     0.03   0.00  -0.01    -0.12  -0.01   0.14     0.17   0.03  -0.13
  13   1     0.01   0.01   0.00     0.38  -0.35  -0.07    -0.19   0.23   0.05
  14   1     0.01  -0.02  -0.01    -0.00   0.08   0.11     0.22  -0.24  -0.11
  15   1    -0.02  -0.32  -0.04    -0.03   0.15  -0.00     0.29   0.11   0.03
  16   1    -0.51  -0.21   0.03    -0.15   0.07   0.01    -0.08   0.01   0.00
  17   1    -0.01   0.41   0.11    -0.00   0.30   0.06     0.04   0.23   0.04
  18   1     0.34  -0.04   0.01     0.08  -0.08  -0.00    -0.01  -0.06  -0.00
  19   1     0.32   0.07  -0.00    -0.46  -0.19   0.01    -0.41  -0.18   0.01
  20   1     0.01   0.00   0.01     0.00   0.01  -0.02     0.02   0.02  -0.02
  21   1     0.09  -0.04   0.03     0.02  -0.01   0.01     0.02  -0.01   0.01
  22   1    -0.01   0.09   0.06    -0.01   0.07   0.04     0.00  -0.02  -0.01
  23   1    -0.06  -0.05   0.03     0.08   0.07  -0.05     0.10   0.08  -0.06
  24   1    -0.04   0.05   0.04     0.20  -0.22  -0.18    -0.26   0.30   0.24
                     49                     50                     51
                        a                      a                      a 
 Frequencies --  1342.3042              1345.0874              1349.8576
 Red. masses --     3.9597                 6.1725                 4.2501
 Frc consts  --     0.0000                 0.0000                 0.0000
 IR Inten    --    23.5630                39.0487                 8.4639
 Raman Activ --     0.0000                 0.0000                 0.0000
 Depolar     --     0.0000                 0.0000                 0.0000
 Atom AN      X      Y      Z        X      Y      Z        X      Y      Z
   1   6     0.31  -0.06  -0.06    -0.13   0.01   0.03     0.23  -0.09  -0.04
   2   6    -0.11  -0.12   0.04     0.12  -0.07  -0.01    -0.14   0.19   0.03
   3   6    -0.00   0.26   0.02    -0.25   0.07   0.05    -0.10  -0.23   0.03
   4   6    -0.02   0.02   0.03     0.37   0.13   0.03     0.25  -0.09  -0.05
   5   6    -0.10  -0.09  -0.01    -0.21  -0.31   0.00     0.01   0.07   0.03
   6   6     0.06   0.05   0.01     0.01   0.18   0.02    -0.01   0.01  -0.00
   7   8     0.02  -0.03   0.06     0.02  -0.01   0.00     0.00  -0.02  -0.00
   8   8     0.00   0.01  -0.02     0.01   0.00  -0.03     0.01  -0.00  -0.00
   9   8    -0.01   0.04  -0.03    -0.03   0.08  -0.05     0.01  -0.03   0.02
  10   8     0.02   0.01   0.01    -0.05  -0.06  -0.06    -0.06  -0.04  -0.08
  11   8     0.05  -0.02  -0.07     0.04   0.00  -0.03    -0.03   0.02   0.05
  12   8    -0.12  -0.02   0.02     0.06   0.01  -0.03    -0.06  -0.02   0.01
  13   1    -0.37   0.20   0.02     0.09  -0.03   0.00    -0.25   0.14   0.01
  14   1    -0.24   0.24   0.06     0.10  -0.11  -0.04    -0.20   0.18   0.02
  15   1     0.23   0.24   0.04    -0.11   0.03   0.01     0.19  -0.22  -0.03
  16   1    -0.10  -0.37  -0.02     0.20  -0.06  -0.01     0.25   0.30   0.02
  17   1     0.04  -0.07  -0.01    -0.34  -0.04   0.03    -0.32   0.31   0.08
  18   1     0.18   0.06   0.01     0.27   0.24   0.04    -0.08  -0.08  -0.01
  19   1    -0.17  -0.08   0.01    -0.06  -0.24  -0.02     0.02  -0.02  -0.00
  20   1    -0.01  -0.00  -0.00    -0.04  -0.03   0.02    -0.01  -0.01   0.01
  21   1     0.09  -0.04   0.03     0.19  -0.08   0.08    -0.07   0.03  -0.03
  22   1     0.01  -0.05  -0.02    -0.02   0.19   0.13    -0.02   0.18   0.11
  23   1    -0.13  -0.11   0.07    -0.09  -0.07   0.06     0.10   0.08  -0.04
  24   1     0.14  -0.17  -0.15    -0.08   0.09   0.08     0.08  -0.10  -0.09
                     52                     53                     54
                        a                      a                      a 
 Frequencies --  1355.4516              1362.1288              1454.0861
 Red. masses --     5.0865                 5.7274                 1.8144
 Frc consts  --     0.0000                 0.0000                 0.0000
 IR Inten    --    31.9419                 3.5869                 1.6670
 Raman Activ --     0.0000                 0.0000                 0.0000
 Depolar     --     0.0000                 0.0000                 0.0000
 Atom AN      X      Y      Z        X      Y      Z        X      Y      Z
   1   6     0.06  -0.02  -0.01     0.05  -0.02  -0.00     0.12   0.16   0.18
   2   6    -0.12   0.15   0.00    -0.08   0.12  -0.01     0.01   0.01   0.01
   3   6     0.20  -0.27  -0.07     0.15  -0.12  -0.03     0.01  -0.00  -0.00
   4   6     0.00   0.26   0.08    -0.16   0.05   0.02    -0.00  -0.00   0.00
   5   6    -0.22  -0.15  -0.06     0.15  -0.26   0.04    -0.00   0.00   0.00
   6   6     0.11  -0.12  -0.01    -0.20   0.41   0.01     0.00  -0.00   0.00
   7   8     0.00  -0.01   0.01     0.05  -0.07  -0.01    -0.01  -0.01   0.00
   8   8    -0.04   0.02   0.03     0.08  -0.04  -0.06    -0.00   0.00  -0.00
   9   8    -0.00   0.06  -0.05    -0.03   0.04  -0.01    -0.00   0.00  -0.00
  10   8    -0.01  -0.02   0.03     0.03   0.03   0.02     0.00   0.00   0.00
  11   8    -0.09   0.02   0.06    -0.04   0.01   0.02    -0.00   0.00   0.00
  12   8    -0.01  -0.00   0.01    -0.02  -0.01   0.01     0.01   0.02   0.02
  13   1    -0.03   0.02  -0.00    -0.01  -0.00  -0.00    -0.37  -0.57  -0.08
  14   1    -0.04   0.04   0.01    -0.06   0.05   0.01    -0.10  -0.09  -0.67
  15   1     0.09  -0.14  -0.02     0.03  -0.11  -0.02     0.00   0.01   0.00
  16   1    -0.17   0.27   0.03    -0.14   0.12   0.02    -0.01  -0.01  -0.00
  17   1     0.05  -0.43  -0.07     0.16  -0.05  -0.02     0.00   0.00   0.00
  18   1     0.36   0.11   0.00    -0.19   0.26   0.06     0.00  -0.00  -0.00
  19   1    -0.12   0.22   0.03     0.19  -0.50  -0.07    -0.01   0.00   0.00
  20   1     0.08   0.08  -0.04    -0.17  -0.17   0.09     0.00   0.00   0.00
  21   1     0.15  -0.06   0.05     0.08  -0.04   0.04     0.00  -0.00   0.00
  22   1    -0.00   0.01   0.01     0.01  -0.09  -0.05     0.00  -0.00  -0.00
  23   1     0.18   0.15  -0.09     0.07   0.06  -0.04    -0.00   0.00  -0.00
  24   1     0.01  -0.02  -0.02     0.03  -0.04  -0.03    -0.01   0.02   0.01
                     55                     56                     57
                        a                      a                      a 
 Frequencies --  2747.6832              2850.1920              2857.3884
 Red. masses --     1.6631                 1.6553                 1.7251
 Frc consts  --     0.0000                 0.0000                 0.0000
 IR Inten    --    90.0814                 1.1180                35.4488
 Raman Activ --     0.0000                 0.0000                 0.0000
 Depolar     --     0.0000                 0.0000                 0.0000
 Atom AN      X      Y      Z        X      Y      Z        X      Y      Z
   1   6     0.00  -0.00   0.00    -0.00   0.00  -0.01    -0.00  -0.00  -0.00
   2   6     0.00   0.00   0.00    -0.00   0.00  -0.02    -0.00   0.01  -0.08
   3   6     0.00  -0.00   0.00     0.02  -0.01   0.18     0.01  -0.01   0.16
   4   6     0.00  -0.00   0.01    -0.01   0.04  -0.16     0.02  -0.03   0.17
   5   6    -0.00  -0.00  -0.00    -0.00   0.00   0.01     0.00   0.01  -0.06
   6   6    -0.01   0.02  -0.24     0.00   0.00  -0.00    -0.00   0.00   0.00
   7   8    -0.02   0.00  -0.01     0.00   0.00  -0.00     0.00   0.00  -0.00
   8   8     0.01   0.01  -0.01     0.00  -0.00  -0.00    -0.00  -0.00   0.00
   9   8     0.00   0.00   0.00     0.00  -0.00   0.00    -0.00   0.00  -0.00
  10   8    -0.00   0.00   0.00     0.00  -0.01  -0.01    -0.00   0.01   0.01
  11   8    -0.00  -0.00   0.00    -0.01  -0.01   0.01    -0.01  -0.01   0.01
  12   8    -0.00   0.00   0.00     0.00  -0.00  -0.00     0.00   0.00   0.00
  13   1     0.00   0.00  -0.01    -0.00  -0.00   0.02    -0.00   0.00  -0.01
  14   1     0.00   0.00   0.00     0.00   0.00  -0.00     0.00   0.00  -0.00
  15   1    -0.01  -0.00  -0.01    -0.00  -0.01   0.09     0.00  -0.04   0.32
  16   1     0.00   0.00  -0.01    -0.04   0.07  -0.70    -0.04   0.06  -0.58
  17   1    -0.00   0.00  -0.03     0.05  -0.11   0.65    -0.05   0.10  -0.64
  18   1    -0.00   0.01  -0.05     0.00   0.01  -0.06     0.00  -0.04   0.25
  19   1     0.05  -0.11   0.96     0.00  -0.00   0.01     0.00  -0.00  -0.01
  20   1    -0.00   0.00  -0.00    -0.00   0.00   0.00    -0.00  -0.00  -0.00
  21   1     0.00  -0.00  -0.00     0.00   0.00  -0.00    -0.00  -0.00   0.00
  22   1     0.00   0.00  -0.00     0.00  -0.00   0.00     0.00   0.00   0.00
  23   1     0.00   0.00  -0.00    -0.00  -0.00  -0.00     0.00  -0.00   0.00
  24   1     0.00  -0.00  -0.00     0.00   0.00   0.00    -0.00  -0.00  -0.00
                     58                     59                     60
                        a                      a                      a 
 Frequencies --  2870.2617              2879.0767              2894.3291
 Red. masses --     1.7217                 1.7600                 1.7499
 Frc consts  --     0.0000                 0.0000                 0.0000
 IR Inten    --    20.2999               106.3430               123.2706
 Raman Activ --     0.0000                 0.0000                 0.0000
 Depolar     --     0.0000                 0.0000                 0.0000
 Atom AN      X      Y      Z        X      Y      Z        X      Y      Z
   1   6     0.00   0.02  -0.07    -0.00  -0.01   0.05    -0.00  -0.05   0.23
   2   6     0.01  -0.02   0.22    -0.00   0.00  -0.05     0.00  -0.01   0.09
   3   6     0.01  -0.00   0.07    -0.01   0.00  -0.05     0.00  -0.00   0.03
   4   6     0.00  -0.01   0.03    -0.01   0.01  -0.08     0.00  -0.00   0.02
   5   6     0.00   0.01  -0.08     0.01   0.04  -0.23    -0.00  -0.00   0.02
   6   6     0.00  -0.00  -0.01     0.00   0.00  -0.02     0.00  -0.00   0.00
   7   8    -0.01  -0.01   0.01     0.00   0.00  -0.00    -0.00  -0.00   0.00
   8   8     0.00   0.00  -0.00    -0.00   0.00   0.00    -0.00   0.00  -0.00
   9   8    -0.00   0.00  -0.00    -0.01   0.00  -0.01     0.00  -0.00   0.00
  10   8    -0.00   0.00   0.00     0.00  -0.00  -0.00    -0.00   0.00   0.00
  11   8    -0.00  -0.00   0.00     0.00   0.00  -0.00    -0.00  -0.00   0.00
  12   8     0.00  -0.00  -0.00    -0.00   0.00   0.00    -0.01   0.01   0.01
  13   1    -0.00  -0.04   0.28     0.00   0.03  -0.19     0.01   0.14  -0.89
  14   1    -0.01  -0.01  -0.01     0.00   0.00   0.01     0.01   0.01   0.03
  15   1    -0.01   0.11  -0.83     0.00  -0.02   0.18    -0.00   0.04  -0.29
  16   1    -0.01   0.02  -0.21     0.01  -0.02   0.18    -0.01   0.01  -0.12
  17   1    -0.01   0.02  -0.10     0.02  -0.04   0.25    -0.01   0.01  -0.06
  18   1     0.01  -0.05   0.31     0.02  -0.13   0.86    -0.00   0.01  -0.09
  19   1    -0.00  -0.00   0.00     0.00  -0.01   0.05    -0.00   0.00  -0.02
  20   1     0.00  -0.00   0.00     0.00  -0.00  -0.00     0.00  -0.00   0.00
  21   1    -0.00  -0.00   0.00    -0.00   0.00   0.00     0.00  -0.00   0.00
  22   1     0.00   0.00  -0.00     0.00   0.00  -0.00     0.00  -0.00   0.00
  23   1    -0.00   0.00   0.00    -0.00   0.00  -0.00     0.00  -0.00   0.00
  24   1     0.00  -0.00   0.00    -0.00   0.00  -0.00    -0.00   0.00  -0.00
                     61                     62                     63
                        a                      a                      a 
 Frequencies --  3012.1526              3511.4917              3531.6124
 Red. masses --     1.7279                 1.8717                 1.8721
 Frc consts  --     0.0000                 0.0000                 0.0000
 IR Inten    --     6.9162                38.5229                41.6548
 Raman Activ --     0.0000                 0.0000                 0.0000
 Depolar     --     0.0000                 0.0000                 0.0000
 Atom AN      X      Y      Z        X      Y      Z        X      Y      Z
   1   6     0.15   0.20  -0.05     0.00   0.00   0.00    -0.00   0.00   0.00
   2   6     0.01   0.01  -0.00    -0.00  -0.00  -0.00    -0.00   0.00   0.00
   3   6     0.00   0.00   0.00    -0.00  -0.01   0.00    -0.00  -0.00   0.00
   4   6     0.00   0.00   0.00    -0.00   0.00   0.00    -0.00   0.00   0.00
   5   6     0.00   0.00  -0.00    -0.00  -0.00  -0.00    -0.00  -0.00   0.00
   6   6     0.00   0.00  -0.00    -0.00  -0.00  -0.00    -0.00   0.00   0.00
   7   8    -0.00  -0.00   0.00     0.00   0.00   0.00     0.00  -0.00   0.00
   8   8     0.00  -0.00   0.00     0.00  -0.00  -0.00     0.00  -0.01  -0.00
   9   8    -0.00  -0.00   0.00     0.00   0.00  -0.00    -0.03  -0.07   0.01
  10   8    -0.00  -0.00   0.00     0.01  -0.00   0.00    -0.23  -0.00  -0.02
  11   8    -0.00   0.00   0.00     0.12  -0.20  -0.07     0.00  -0.01  -0.00
  12   8    -0.00   0.01   0.00    -0.00  -0.00   0.00     0.01   0.01  -0.00
  13   1     0.02   0.03  -0.03    -0.00  -0.00  -0.00     0.00  -0.00   0.00
  14   1    -0.56  -0.75   0.22    -0.00  -0.00   0.00    -0.00  -0.00   0.00
  15   1    -0.00  -0.00   0.01     0.00   0.00   0.00    -0.00   0.00  -0.00
  16   1     0.00   0.00  -0.00     0.00   0.00  -0.00     0.00  -0.00   0.00
  17   1    -0.00   0.00  -0.00    -0.00  -0.00  -0.00     0.00   0.00  -0.00
  18   1    -0.00  -0.00   0.00    -0.00   0.00  -0.00    -0.00   0.00  -0.00
  19   1     0.00  -0.00   0.00    -0.00  -0.00   0.00    -0.00  -0.00   0.00
  20   1    -0.00  -0.00  -0.00    -0.00   0.00   0.00    -0.02   0.03   0.00
  21   1    -0.00   0.00  -0.00    -0.00  -0.00   0.00     0.15   0.27  -0.03
  22   1     0.00   0.00   0.00    -0.03   0.00  -0.00     0.92  -0.01   0.09
  23   1     0.00  -0.00  -0.00    -0.46   0.81   0.27    -0.01   0.03   0.01
  24   1     0.01   0.01  -0.00     0.01   0.01  -0.00    -0.02  -0.02   0.00
                     64                     65                     66
                        a                      a                      a 
 Frequencies --  3533.8635              3535.6476              3538.8860
 Red. masses --     1.8745                 1.8719                 1.8711
 Frc consts  --     0.0000                 0.0000                 0.0000
 IR Inten    --    26.9829                20.5557                25.1857
 Raman Activ --     0.0000                 0.0000                 0.0000
 Depolar     --     0.0000                 0.0000                 0.0000
 Atom AN      X      Y      Z        X      Y      Z        X      Y      Z
   1   6     0.00   0.00   0.00    -0.00  -0.01  -0.00    -0.00  -0.00  -0.00
   2   6    -0.00  -0.00   0.00     0.00   0.00  -0.00     0.00  -0.00   0.00
   3   6     0.00  -0.00  -0.00    -0.00  -0.00  -0.00    -0.00   0.00  -0.00
   4   6     0.00  -0.00  -0.00    -0.00   0.00   0.00     0.00  -0.00  -0.00
   5   6    -0.01  -0.00  -0.00    -0.00  -0.00  -0.00     0.00  -0.00   0.00
   6   6     0.00   0.00  -0.00    -0.00   0.00  -0.00     0.00  -0.01   0.00
   7   8     0.00  -0.00   0.00     0.00  -0.00   0.00    -0.00  -0.00   0.00
   8   8     0.01  -0.02  -0.00    -0.02   0.03   0.01     0.14  -0.18  -0.03
   9   8    -0.10  -0.20   0.02    -0.01  -0.02   0.00     0.01   0.02  -0.00
  10   8     0.08   0.00   0.01    -0.00   0.00  -0.00    -0.00  -0.00  -0.00
  11   8    -0.00   0.00   0.00    -0.00   0.00   0.00    -0.00   0.00   0.00
  12   8     0.01   0.01  -0.00    -0.15  -0.18   0.03    -0.03  -0.03   0.01
  13   1    -0.00  -0.00  -0.00     0.00   0.00   0.00     0.00   0.00   0.00
  14   1    -0.00  -0.00   0.00     0.01   0.01  -0.00     0.00   0.00  -0.00
  15   1     0.00   0.00  -0.00    -0.00  -0.00   0.00     0.00   0.00  -0.00
  16   1    -0.00   0.00  -0.00     0.00   0.00   0.00     0.00  -0.00   0.00
  17   1     0.00   0.00  -0.00     0.00  -0.00  -0.00    -0.00  -0.00   0.00
  18   1     0.00  -0.00   0.00     0.00   0.00  -0.00     0.00   0.00   0.00
  19   1    -0.00  -0.00   0.00    -0.00  -0.00   0.00     0.00   0.00  -0.00
  20   1    -0.06   0.08   0.01     0.10  -0.13  -0.02    -0.56   0.76   0.13
  21   1     0.43   0.80  -0.08     0.04   0.07  -0.01    -0.05  -0.08   0.01
  22   1    -0.31   0.01  -0.03     0.01  -0.00   0.00     0.00  -0.00   0.00
  23   1     0.00  -0.01  -0.00     0.00  -0.01  -0.00     0.00  -0.00  -0.00
  24   1    -0.04  -0.04   0.01     0.60   0.73  -0.12     0.11   0.13  -0.02
