      -----------------------------------------------------------      
     |                   =====================                   |     
     |                           x T B                           |     
     |                   =====================                   |     
     |                         S. Grimme                         |     
     |          Mulliken Center for Theoretical Chemistry        |     
     |                    University of Bonn                     |     
      -----------------------------------------------------------      

   * xtb version 6.7.1pre (5071a88) compiled by 'Marcel@Raven' on 2024-07-23

   xtb is free software: you can redistribute it and/or modify it under
   the terms of the GNU Lesser General Public License as published by
   the Free Software Foundation, either version 3 of the License, or
   (at your option) any later version.
   
   xtb is distributed in the hope that it will be useful,
   but WITHOUT ANY WARRANTY; without even the implied warranty of
   MERCHANTABILITY or FITNESS FOR A PARTICULAR PURPOSE.  See the
   GNU Lesser General Public License for more details.
   
   Cite this work as:
   * C. Bannwarth, E. Caldeweyher, S. Ehlert, A. Hansen, P. Pracht,
     J. Seibert, S. Spicher, S. Grimme, WIREs Comput. Mol. Sci., 2020, 11,
     e01493. DOI: 10.1002/wcms.1493
   
   for GFN2-xTB:
   * C. Bannwarth, S. Ehlert and S. Grimme., J. Chem. Theory Comput., 2019,
     15, 1652-1671. DOI: 10.1021/acs.jctc.8b01176
   for GFN1-xTB:
   * S. Grimme, C. Bannwarth, P. Shushkov, J. Chem. Theory Comput., 2017,
     13, 1989-2009. DOI: 10.1021/acs.jctc.7b00118
   for GFN0-xTB:
   * P. Pracht, E. Caldeweyher, S. Ehlert, S. Grimme, ChemRxiv, 2019, preprint.
     DOI: 10.26434/chemrxiv.8326202.v1
   for GFN-FF:
   * S. Spicher and S. Grimme, Angew. Chem. Int. Ed., 2020, 59, 15665-15673.
     DOI: 10.1002/anie.202004239
   
   for ALPB and GBSA implicit solvation:
   * S. Ehlert, M. Stahn, S. Spicher, S. Grimme, J. Chem. Theory Comput.,
     2021, 17, 4250-4261. DOI: 10.1021/acs.jctc.1c00471
   
   for ddCOSMO and CPCM-X implicit solvation:
   * M. Stahn, S. Ehlert, S. Grimme, J. Phys. Chem. A,
     2023, XX, XXXX-XXXX. DOI: 10.1021/acs.jpca.3c04382
   
   for DFT-D4:
   * E. Caldeweyher, C. Bannwarth and S. Grimme, J. Chem. Phys., 2017,
     147, 034112. DOI: 10.1063/1.4993215
   * E. Caldeweyher, S. Ehlert, A. Hansen, H. Neugebauer, S. Spicher,
     C. Bannwarth and S. Grimme, J. Chem. Phys., 2019, 150, 154122.
     DOI: 10.1063/1.5090222
   * E. Caldeweyher, J.-M. Mewes, S. Ehlert and S. Grimme, Phys. Chem. Chem. Phys.
     2020, 22, 8499-8512. DOI: 10.1039/D0CP00502A
   
   for sTDA-xTB:
   * S. Grimme and C. Bannwarth, J. Chem. Phys., 2016, 145, 054103.
     DOI: 10.1063/1.4959605
   
   in the mass-spec context:
   * V. Asgeirsson, C. Bauer and S. Grimme, Chem. Sci., 2017, 8, 4879.
     DOI: 10.1039/c7sc00601b
   * J. Koopman and S. Grimme, ACS Omega 2019, 4, 12, 15120-15133.
     DOI: 10.1021/acsomega.9b02011
   
   for metadynamics refer to:
   * S. Grimme, J. Chem. Theory Comput., 2019, 155, 2847-2862
     DOI: 10.1021/acs.jctc.9b00143
   
   for SPH calculations refer to:
   * S. Spicher and S. Grimme, J. Chem. Theory Comput., 2021, 17, 1701-1714
     DOI: 10.1021/acs.jctc.0c01306
   
   for ONIOM refer to:
   * C. Plett, A. Katbashev, S. Ehlert, S. Grimme, M. Bursch,
     Phys. Chem. Chem. Phys., 2023, 25, 17860-17868. DOI: 10.1039/D3CP02178E
   
   for DIPRO refer to:
   * J. Kohn, N. Gildemeister, S. Grimme, D. Fazzi, A. Hansen,
     J. Chem. Phys., 2023, just accepted.
   
   for PTB refer to:
   * S. Grimme, M. Mueller, A. Hansen, J. Chem. Phys., 2023, 158, 124111.
     DOI: 10.1063/5.0137838
   
   with help from (in alphabetical order)
   P. Atkinson, C. Bannwarth, F. Bohle, G. Brandenburg, E. Caldeweyher
   M. Checinski, S. Dohm, S. Ehlert, S. Ehrlich, I. Gerasimov, C. Hölzer
   A. Katbashev, J. Kohn, J. Koopman, C. Lavigne, S. Lehtola, F. März, M. Müller,
   F. Musil, H. Neugebauer, J. Pisarek, C. Plett, P. Pracht, F. Pultar,
   J. Seibert, P. Shushkov, S. Spicher, M. Stahn, M. Steiner, T. Strunk,
   J. Stückrath, T. Rose, and J. Unsleber
   
 * started run on 2026/09/17 at 00:11:27.680     
   ID    Z sym.   atoms
    1    6 C      1-6
    2    8 O      7-12
    3    1 H      13-24

           -------------------------------------------------
          |                Calculation Setup                |
           -------------------------------------------------

          program call               : C:\ORCA_6.1.1\xtb-6.7.1pre\xtb.exe optimized.xyz --gfn 2 --chrg 0 --uhf 0 --hess --json
          coordinate file            : optimized.xyz
          omp threads                :                     4


           -------------------------------------------------
          |                 G F N 2 - x T B                 |
           -------------------------------------------------

        Reference                      10.1021/acs.jctc.8b01176
      * Hamiltonian:
        H0-scaling (s, p, d)           1.850000    2.230000    2.230000
        zeta-weighting                 0.500000
      * Dispersion:
        s8                             2.700000
        a1                             0.520000
        a2                             5.000000
        s9                             5.000000
      * Repulsion:
        kExp                           1.500000    1.000000
        rExp                           1.000000
      * Coulomb:
        alpha                          2.000000
        third order                    shell-resolved
        anisotropic                    true
        a3                             3.000000
        a5                             4.000000
        cn-shift                       1.200000
        cn-exp                         4.000000
        max-rad                        5.000000


          ...................................................
          :                      SETUP                      :
          :.................................................:
          :  # basis functions                  60          :
          :  # atomic orbitals                  60          :
          :  # shells                           36          :
          :  # electrons                        72          :
          :  max. iterations                   250          :
          :  Hamiltonian                  GFN2-xTB          :
          :  restarted?                      false          :
          :  GBSA solvation                  false          :
          :  PC potential                    false          :
          :  electronic temp.          300.0000000     K    :
          :  accuracy                    1.0000000          :
          :  -> integral cutoff          0.2500000E+02      :
          :  -> integral neglect         0.1000000E-07      :
          :  -> SCF convergence          0.1000000E-05 Eh   :
          :  -> wf. convergence          0.1000000E-03 e    :
          :  Broyden damping             0.4000000          :
          :  net charge                          0          :
          :  unpaired electrons                  0          :
          ...................................................

 iter      E             dE          RMSdq      gap      omega  full diag
   1    -43.6313224 -0.436313E+02  0.472E+00   10.44       0.0  T
   2    -43.6680811 -0.367587E-01  0.262E+00   10.33       1.0  T
   3    -43.6692124 -0.113129E-02  0.720E-01   10.47       1.0  T
   4    -43.6702307 -0.101826E-02  0.147E-01   10.44       1.0  T
   5    -43.6702989 -0.682824E-04  0.693E-02   10.47       1.0  T
   6    -43.6703076 -0.869190E-05  0.181E-02   10.47       1.1  T
   7    -43.6703084 -0.772914E-06  0.597E-03   10.47       3.4  T
   8    -43.6703087 -0.265371E-06  0.185E-03   10.47      11.0  T
   9    -43.6703087 -0.492749E-08  0.683E-04   10.47      29.9  T
  10    -43.6703087 -0.375655E-08  0.188E-04   10.47     108.5  T

   *** convergence criteria satisfied after 10 iterations ***

         #    Occupation            Energy/Eh            Energy/eV
      -------------------------------------------------------------
         1        2.0000           -0.7394244             -20.1208
       ...           ...                  ...                  ...
        30        2.0000           -0.4678997             -12.7322
        31        2.0000           -0.4545549             -12.3691
        32        2.0000           -0.4470433             -12.1647
        33        2.0000           -0.4311218             -11.7314
        34        2.0000           -0.4244901             -11.5510
        35        2.0000           -0.4198057             -11.4235
        36        2.0000           -0.4169005             -11.3444 (HOMO)
        37                         -0.0321823              -0.8757 (LUMO)
        38                         -0.0116460              -0.3169
        39                          0.0119207               0.3244
        40                          0.0323196               0.8795
        41                          0.0482595               1.3132
       ...                                ...                  ...
        60                          0.2800834               7.6215
      -------------------------------------------------------------
                  HL-Gap            0.3847182 Eh           10.4687 eV
             Fermi-level           -0.2245414 Eh           -6.1101 eV

 SCC (total)                   0 d,  0 h,  0 min,  0.011 sec
 SCC setup                      ...        0 min,  0.001 sec (  9.090%)
 Dispersion                     ...        0 min,  0.000 sec (  0.000%)
 classical contributions        ...        0 min,  0.000 sec (  0.000%)
 integral evaluation            ...        0 min,  0.001 sec (  9.090%)
 iterations                     ...        0 min,  0.007 sec ( 63.637%)
 molecular gradient             ...        0 min,  0.002 sec ( 18.183%)
 printout                       ...        0 min,  0.000 sec (  0.000%)

         :::::::::::::::::::::::::::::::::::::::::::::::::::::
         ::                     SUMMARY                     ::
         :::::::::::::::::::::::::::::::::::::::::::::::::::::
         :: total energy             -43.362941698816 Eh    ::
         :: gradient norm              0.000388043330 Eh/a0 ::
         :: HOMO-LUMO gap             10.468714426132 eV    ::
         ::.................................................::
         :: SCC energy               -43.670172685526 Eh    ::
         :: -> isotropic ES            0.133753954881 Eh    ::
         :: -> anisotropic ES         -0.006361460355 Eh    ::
         :: -> anisotropic XC         -0.010632902630 Eh    ::
         :: -> dispersion             -0.018795826589 Eh    ::
         :: repulsion energy           0.307230986710 Eh    ::
         :: add. restraining           0.000000000000 Eh    ::
         :: total charge               0.000000000000 e     ::
         :::::::::::::::::::::::::::::::::::::::::::::::::::::

           ------------------------------------------------- 
          |                Numerical Hessian                |
           ------------------------------------------------- 
step length          :   0.00500
SCC accuracy         :   0.30000
Hessian scale factor :   1.00000
frozen atoms in %    :   0.00000    0
RMS gradient         :   0.00039
estimated CPU  time      0.11 min
estimated wall time      0.03 min

writing file <hessian>.

 projected vibrational frequencies (cm⁻¹)
eigval :       -0.00    -0.00    -0.00    -0.00     0.00     0.00
eigval :       58.89    85.15    98.01   141.18   167.37   224.19
eigval :      226.09   236.35   276.76   299.47   317.73   368.86
eigval :      377.00   391.73   398.67   412.55   440.78   445.59
eigval :      483.02   532.23   572.75   606.79   612.21   889.76
eigval :      999.37  1011.74  1029.27  1043.88  1051.67  1070.13
eigval :     1091.86  1105.09  1114.74  1120.38  1143.01  1149.86
eigval :     1163.08  1180.30  1205.40  1219.11  1222.91  1257.69
eigval :     1269.78  1280.89  1284.29  1303.32  1309.07  1318.55
eigval :     1342.30  1345.09  1349.86  1355.45  1362.13  1454.09
eigval :     2747.68  2850.19  2857.39  2870.26  2879.08  2894.33
eigval :     3012.15  3511.49  3531.61  3533.86  3535.65  3538.89
           -------------------------------------------------
          |                Property Printout                |
           -------------------------------------------------

    * Orbital Energies and Occupations

         #    Occupation            Energy/Eh            Energy/eV
      -------------------------------------------------------------
         1        2.0000           -0.7394254             -20.1208
       ...           ...                  ...                  ...
        24        2.0000           -0.5288321             -14.3903
        25        2.0000           -0.5126272             -13.9493
        26        2.0000           -0.5074175             -13.8075
        27        2.0000           -0.5018828             -13.6569
        28        2.0000           -0.4849803             -13.1970
        29        2.0000           -0.4755157             -12.9394
        30        2.0000           -0.4679006             -12.7322
        31        2.0000           -0.4545560             -12.3691
        32        2.0000           -0.4470438             -12.1647
        33        2.0000           -0.4311220             -11.7314
        34        2.0000           -0.4244906             -11.5510
        35        2.0000           -0.4198062             -11.4235
        36        2.0000           -0.4169009             -11.3445 (HOMO)
        37                         -0.0321825              -0.8757 (LUMO)
        38                         -0.0116459              -0.3169
        39                          0.0119211               0.3244
        40                          0.0323199               0.8795
        41                          0.0482598               1.3132
        42                          0.0643679               1.7515
        43                          0.0779444               2.1210
        44                          0.0924249               2.5150
        45                          0.0989901               2.6937
        46                          0.1095485               2.9810
        47                          0.1150470               3.1306
       ...                                ...                  ...
        60                          0.2800834               7.6215
      -------------------------------------------------------------
                  HL-Gap            0.3847184 Eh           10.4687 eV
             Fermi-level           -0.2245417 Eh           -6.1101 eV

     #   Z          covCN         q      C6AA      α(0)
     1   6 C        3.677     0.072    19.591     6.341
     2   6 C        3.753     0.094    19.087     6.230
     3   6 C        3.729     0.095    19.106     6.240
     4   6 C        3.731     0.098    19.050     6.230
     5   6 C        3.728     0.088    19.217     6.259
     6   6 C        3.630     0.240    17.233     5.978
     7   8 O        1.701    -0.348    19.856     6.016
     8   8 O        1.658    -0.435    21.540     6.265
     9   8 O        1.656    -0.443    21.698     6.288
    10   8 O        1.656    -0.444    21.722     6.292
    11   8 O        1.657    -0.439    21.622     6.277
    12   8 O        1.656    -0.426    21.355     6.238
    13   1 H        0.923     0.038     2.474     2.460
    14   1 H        0.924     0.079     1.991     2.207
    15   1 H        0.923     0.042     2.419     2.432
    16   1 H        0.923     0.035     2.510     2.478
    17   1 H        0.923     0.033     2.541     2.493
    18   1 H        0.923     0.042     2.427     2.436
    19   1 H        0.921     0.005     2.970     2.695
    20   1 H        0.805     0.321     0.660     1.276
    21   1 H        0.805     0.314     0.680     1.295
    22   1 H        0.805     0.316     0.674     1.290
    23   1 H        0.805     0.322     0.659     1.275
    24   1 H        0.805     0.300     0.720     1.333

 Mol. C6AA /au·bohr⁶  :       4718.295463
 Mol. C8AA /au·bohr⁸  :     100119.834843
 Mol. α(0) /au        :         98.324571


Wiberg/Mayer (AO) data.
largest (>0.10) Wiberg bond orders for each atom

 ---------------------------------------------------------------------------
     #   Z sym  total        # sym  WBO       # sym  WBO       # sym  WBO
 ---------------------------------------------------------------------------
     1   6 C    3.959 --    12 O    1.015     2 C    0.978    14 H    0.967
                            13 H    0.966
     2   6 C    3.939 --     1 C    0.978     3 C    0.970     7 O    0.957
                            15 H    0.956
     3   6 C    3.965 --    11 O    1.007     2 C    0.970     4 C    0.969
                            16 H    0.955
     4   6 C    3.963 --    10 O    0.999     5 C    0.972     3 C    0.969
                            17 H    0.955
     5   6 C    3.961 --     9 O    1.000     4 C    0.972    18 H    0.956
                             6 C    0.954
     6   6 C    3.931 --     8 O    1.009     7 O    0.968     5 C    0.954
                            19 H    0.943
     7   8 O    2.069 --     6 C    0.968     2 C    0.957
     8   8 O    1.974 --     6 C    1.009    20 H    0.877
     9   8 O    1.959 --     5 C    1.000    21 H    0.884
    10   8 O    1.957 --     4 C    0.999    22 H    0.882
    11   8 O    1.958 --     3 C    1.007    23 H    0.878
    12   8 O    1.969 --     1 C    1.015    24 H    0.894
    13   1 H    0.999 --     1 C    0.966
    14   1 H    0.993 --     1 C    0.967
    15   1 H    0.998 --     2 C    0.956
    16   1 H    0.999 --     3 C    0.955
    17   1 H    0.999 --     4 C    0.955
    18   1 H    0.998 --     5 C    0.956
    19   1 H    1.000 --     6 C    0.943
    20   1 H    0.896 --     8 O    0.877
    21   1 H    0.901 --     9 O    0.884
    22   1 H    0.900 --    10 O    0.882
    23   1 H    0.896 --    11 O    0.878
    24   1 H    0.910 --    12 O    0.894
 ---------------------------------------------------------------------------

Topologies differ in total number of bonds
Writing topology from bond orders to xtbtopo.mol

molecular dipole:
                 x           y           z       tot (Debye)
 q only:       -0.607      -0.322       0.127
   full:       -1.054      -0.592       0.130       3.090
molecular quadrupole (traceless):
                xx          xy          yy          xz          yz          zz
 q only:       -5.353       1.422       6.289       2.628       0.950      -0.936
  q+dip:      -11.175       1.277       6.440       4.316       0.578       4.735
   full:      -10.058       1.471       7.829       4.042       0.976       2.229

           -------------------------------------------------
          |               Frequency Printout                |
           -------------------------------------------------
 projected vibrational frequencies (cm⁻¹)
eigval :       -0.00    -0.00    -0.00    -0.00     0.00     0.00
eigval :       58.89    85.15    98.01   141.18   167.37   224.19
eigval :      226.09   236.35   276.76   299.47   317.73   368.86
eigval :      377.00   391.73   398.67   412.55   440.78   445.59
eigval :      483.02   532.23   572.75   606.79   612.21   889.76
eigval :      999.37  1011.74  1029.27  1043.88  1051.67  1070.13
eigval :     1091.86  1105.09  1114.74  1120.38  1143.01  1149.86
eigval :     1163.08  1180.30  1205.40  1219.11  1222.91  1257.69
eigval :     1269.78  1280.89  1284.29  1303.32  1309.07  1318.55
eigval :     1342.30  1345.09  1349.86  1355.45  1362.13  1454.09
eigval :     2747.68  2850.19  2857.39  2870.26  2879.08  2894.33
eigval :     3012.15  3511.49  3531.61  3533.86  3535.65  3538.89
 reduced masses (amu)
   1: 13.68   2: 13.60   3: 13.61   4: 13.49   5: 13.39   6: 13.77   7: 14.04   8: 12.55
   9: 14.28  10: 13.99  11:  9.49  12:  9.44  13: 12.50  14:  9.17  15: 11.77  16: 10.66
  17: 12.03  18:  8.01  19:  4.41  20:  6.95  21:  9.65  22:  6.05  23:  6.03  24:  8.66
  25: 11.49  26: 10.42  27: 11.72  28: 11.08  29: 12.46  30:  7.01  31: 10.12  32:  9.19
  33:  9.71  34:  9.21  35:  9.39  36:  8.65  37: 10.26  38: 11.54  39: 11.11  40: 10.76
  41:  8.42  42: 11.77  43:  6.76  44:  5.87  45:  3.64  46:  2.65  47:  3.72  48:  3.80
  49:  3.87  50:  3.96  51:  3.10  52:  2.85  53:  2.99  54:  3.32  55:  3.96  56:  6.17
  57:  4.25  58:  5.09  59:  5.73  60:  1.81  61:  1.66  62:  1.66  63:  1.73  64:  1.72
  65:  1.76  66:  1.75  67:  1.73  68:  1.87  69:  1.87  70:  1.87  71:  1.87  72:  1.87
 IR intensities (km·mol⁻¹)
   1:  0.02   2:  0.41   3:  0.10   4:  0.22   5:  0.17   6:  0.28   7:  0.73   8:  3.17
   9:  1.00  10:  2.57  11:  0.46  12: 40.28  13: 10.94  14: 62.55  15: 30.76  16: 10.00
  17: 10.77  18: 35.02  19: 40.15  20: 39.40  21: 27.10  22:104.08  23:254.65  24:251.02
  25: 10.19  26: 20.26  27: 13.07  28: 10.90  29: 18.40  30: 36.74  31: 14.41  32: 37.81
  33:  3.62  34: 13.54  35: 95.49  36:116.17  37: 98.26  38: 10.62  39:234.91  40: 79.30
  41: 43.99  42: 85.18  43: 29.56  44: 54.96  45: 48.31  46: 33.86  47: 27.64  48: 67.48
  49: 94.95  50: 82.10  51: 26.98  52: 36.76  53: 53.09  54: 12.45  55: 23.56  56: 39.05
  57:  8.46  58: 31.94  59:  3.59  60:  1.67  61: 90.08  62:  1.12  63: 35.45  64: 20.30
  65:106.34  66:123.27  67:  6.92  68: 38.52  69: 41.65  70: 26.98  71: 20.56  72: 25.19
 Raman intensities (Ä⁴*amu⁻¹)
   1:  0.00   2:  0.00   3:  0.00   4:  0.00   5:  0.00   6:  0.00   7:  0.00   8:  0.00
   9:  0.00  10:  0.00  11:  0.00  12:  0.00  13:  0.00  14:  0.00  15:  0.00  16:  0.00
  17:  0.00  18:  0.00  19:  0.00  20:  0.00  21:  0.00  22:  0.00  23:  0.00  24:  0.00
  25:  0.00  26:  0.00  27:  0.00  28:  0.00  29:  0.00  30:  0.00  31:  0.00  32:  0.00
  33:  0.00  34:  0.00  35:  0.00  36:  0.00  37:  0.00  38:  0.00  39:  0.00  40:  0.00
  41:  0.00  42:  0.00  43:  0.00  44:  0.00  45:  0.00  46:  0.00  47:  0.00  48:  0.00
  49:  0.00  50:  0.00  51:  0.00  52:  0.00  53:  0.00  54:  0.00  55:  0.00  56:  0.00
  57:  0.00  58:  0.00  59:  0.00  60:  0.00  61:  0.00  62:  0.00  63:  0.00  64:  0.00
  65:  0.00  66:  0.00  67:  0.00  68:  0.00  69:  0.00  70:  0.00  71:  0.00  72:  0.00
 output can be read by thermo (or use thermo option).
 writing <g98.out> molden fake output.
 recommended (thermochemical) frequency scaling factor: 1.0
           -------------------------------------------------
          |             Thermodynamic Functions             |
           -------------------------------------------------

Molecule has no symmetry elements
It seems to be the C1 point group
c1  symmetry found (for desy threshold:  0.10E+00) used in thermo

          ...................................................
          :                      SETUP                      :
          :.................................................:
          :  # frequencies                          66      :
          :  # imaginary freq.                       0      :
          :  linear?                             false      :
          :  only rotor calc.                    false      :
          :  symmetry                               c1      :
          :  rotational number                       1      :
          :  scaling factor                  1.0000000      :
          :  rotor cutoff                   50.0000000 cm⁻¹ :
          :  imag. cutoff                  -20.0000000 cm⁻¹ :
          :.................................................:

    mode    ω/cm⁻¹     T·S(HO)/kcal·mol⁻¹    T·S(FR)/kcal·mol⁻¹   T·S(vib)
   ------------------------------------------------------------------------
       1     58.89    -1.33990 ( 65.80%)    -1.00795 ( 34.20%)    -1.22639
       2     85.15    -1.12358 ( 89.37%)    -0.89875 ( 10.63%)    -1.09969
       3     98.01    -1.04162 ( 93.66%)    -0.85711 (  6.34%)    -1.02991
       4    141.18    -0.83118 ( 98.45%)    -0.74899 (  1.55%)    -0.82991
       5    167.37    -0.73490 ( 99.21%)    -0.69860 (  0.79%)    -0.73461
       6    224.19    -0.57393 ( 99.75%)    -0.61201 (  0.25%)    -0.57402
       7    226.09    -0.56940 ( 99.76%)    -0.60952 (  0.24%)    -0.56950
       8    236.35    -0.54568 ( 99.80%)    -0.59638 (  0.20%)    -0.54578
       9    276.76    -0.46321 ( 99.89%)    -0.54962 (  0.11%)    -0.46330
      10    299.47    -0.42333 ( 99.92%)    -0.52626 (  0.08%)    -0.42341
   ------------------------------------------------------------------------

   temp. (K)  partition function   enthalpy   heat capacity  entropy
                                   cal/mol     cal/K/mol   cal/K/mol   J/K/mol
 298.15  VIB  0.418E+04             6325.134     42.332     37.282
         ROT  0.128E+07              888.752      2.981     30.930
         INT  0.536E+10             7213.887     45.313     68.212
         TR   0.234E+28             1481.254      4.968     41.454
         TOT                        8695.1405    50.2815   109.6658   458.8419

       T/K    H(0)-H(T)+PV         H(T)/Eh          T*S/Eh         G(T)/Eh
   ------------------------------------------------------------------------
    298.15    0.138566E-01    0.201988E+00    0.521058E-01    0.149882E+00
   ------------------------------------------------------------------------

         :::::::::::::::::::::::::::::::::::::::::::::::::::::
         ::                  THERMODYNAMIC                  ::
         :::::::::::::::::::::::::::::::::::::::::::::::::::::
         :: total free energy         -43.213059763420 Eh   ::
         ::.................................................::
         :: total energy              -43.362941699020 Eh   ::
         :: zero point energy           0.188131125330 Eh   ::
         :: G(RRHO) w/o ZPVE           -0.038249189730 Eh   ::
         :: G(RRHO) contrib.            0.149881935600 Eh   ::
         :::::::::::::::::::::::::::::::::::::::::::::::::::::

           -------------------------------------------------
          | TOTAL ENERGY              -43.362941699020 Eh   |
          | TOTAL ENTHALPY            -43.160953985240 Eh   |
          | TOTAL FREE ENERGY         -43.213059763420 Eh   |
          | GRADIENT NORM               0.000388146079 Eh/α |
          | HOMO-LUMO GAP              10.468719240750 eV   |
           -------------------------------------------------

------------------------------------------------------------------------
 * finished run on 2026/09/17 at 00:11:28.225     
------------------------------------------------------------------------
 total:
 * wall-time:     0 d,  0 h,  0 min,  0.542 sec
 *  cpu-time:     0 d,  0 h,  0 min,  2.141 sec
 * ratio c/w:     3.949 speedup
 SCF:
 * wall-time:     0 d,  0 h,  0 min,  0.012 sec
 *  cpu-time:     0 d,  0 h,  0 min,  0.000 sec
 * ratio c/w:     0.000 speedup
 analytical hessian:
 * wall-time:     0 d,  0 h,  0 min,  0.506 sec
 *  cpu-time:     0 d,  0 h,  0 min,  2.031 sec
 * ratio c/w:     4.014 speedup

