17
Coordinates from ORCA-job optfreq E -421.912239765092
  C          -2.65793874415671     -0.16074110566923      0.15354823546012
  O          -1.57627286083392      0.75510538838702      0.02078911482331
  C          -0.30581751579636      0.23457414071794     -0.00363603060325
  C           0.02410994746882     -1.11133834816140      0.08843383795263
  C           1.36646216116096     -1.49667116024951      0.04927916132700
  C           2.36396341860144     -0.54051663961006     -0.08067828594220
  C           2.03380903074460      0.81084915441258     -0.17305226224248
  C           0.70506529265977      1.20308755136381     -0.13524513637138
  O           0.38826242918949      2.52558121933105     -0.22591400912770
  H          -2.59051822507830     -0.71764454811244      1.09738576595060
  H          -3.56689918925868      0.44294998334347      0.15136535236274
  H          -2.68459561858365     -0.86556550293626     -0.68789066145644
  H          -0.74887227746550     -1.86483466604577      0.19061003023629
  H           1.61978306793220     -2.54943612147900      0.12177126516477
  H           3.40699728229587     -0.83938492764194     -0.11095808722253
  H           2.79752428228323      1.57560578335284     -0.27499227732958
  H          -0.57506248116325      2.59837979899691     -0.18081501298189
