      -----------------------------------------------------------      
     |                   =====================                   |     
     |                           x T B                           |     
     |                   =====================                   |     
     |                         S. Grimme                         |     
     |          Mulliken Center for Theoretical Chemistry        |     
     |                    University of Bonn                     |     
      -----------------------------------------------------------      

   * xtb version 6.7.1pre (5071a88) compiled by 'Marcel@Raven' on 2024-07-23

   xtb is free software: you can redistribute it and/or modify it under
   the terms of the GNU Lesser General Public License as published by
   the Free Software Foundation, either version 3 of the License, or
   (at your option) any later version.
   
   xtb is distributed in the hope that it will be useful,
   but WITHOUT ANY WARRANTY; without even the implied warranty of
   MERCHANTABILITY or FITNESS FOR A PARTICULAR PURPOSE.  See the
   GNU Lesser General Public License for more details.
   
   Cite this work as:
   * C. Bannwarth, E. Caldeweyher, S. Ehlert, A. Hansen, P. Pracht,
     J. Seibert, S. Spicher, S. Grimme, WIREs Comput. Mol. Sci., 2020, 11,
     e01493. DOI: 10.1002/wcms.1493
   
   for GFN2-xTB:
   * C. Bannwarth, S. Ehlert and S. Grimme., J. Chem. Theory Comput., 2019,
     15, 1652-1671. DOI: 10.1021/acs.jctc.8b01176
   for GFN1-xTB:
   * S. Grimme, C. Bannwarth, P. Shushkov, J. Chem. Theory Comput., 2017,
     13, 1989-2009. DOI: 10.1021/acs.jctc.7b00118
   for GFN0-xTB:
   * P. Pracht, E. Caldeweyher, S. Ehlert, S. Grimme, ChemRxiv, 2019, preprint.
     DOI: 10.26434/chemrxiv.8326202.v1
   for GFN-FF:
   * S. Spicher and S. Grimme, Angew. Chem. Int. Ed., 2020, 59, 15665-15673.
     DOI: 10.1002/anie.202004239
   
   for ALPB and GBSA implicit solvation:
   * S. Ehlert, M. Stahn, S. Spicher, S. Grimme, J. Chem. Theory Comput.,
     2021, 17, 4250-4261. DOI: 10.1021/acs.jctc.1c00471
   
   for ddCOSMO and CPCM-X implicit solvation:
   * M. Stahn, S. Ehlert, S. Grimme, J. Phys. Chem. A,
     2023, XX, XXXX-XXXX. DOI: 10.1021/acs.jpca.3c04382
   
   for DFT-D4:
   * E. Caldeweyher, C. Bannwarth and S. Grimme, J. Chem. Phys., 2017,
     147, 034112. DOI: 10.1063/1.4993215
   * E. Caldeweyher, S. Ehlert, A. Hansen, H. Neugebauer, S. Spicher,
     C. Bannwarth and S. Grimme, J. Chem. Phys., 2019, 150, 154122.
     DOI: 10.1063/1.5090222
   * E. Caldeweyher, J.-M. Mewes, S. Ehlert and S. Grimme, Phys. Chem. Chem. Phys.
     2020, 22, 8499-8512. DOI: 10.1039/D0CP00502A
   
   for sTDA-xTB:
   * S. Grimme and C. Bannwarth, J. Chem. Phys., 2016, 145, 054103.
     DOI: 10.1063/1.4959605
   
   in the mass-spec context:
   * V. Asgeirsson, C. Bauer and S. Grimme, Chem. Sci., 2017, 8, 4879.
     DOI: 10.1039/c7sc00601b
   * J. Koopman and S. Grimme, ACS Omega 2019, 4, 12, 15120-15133.
     DOI: 10.1021/acsomega.9b02011
   
   for metadynamics refer to:
   * S. Grimme, J. Chem. Theory Comput., 2019, 155, 2847-2862
     DOI: 10.1021/acs.jctc.9b00143
   
   for SPH calculations refer to:
   * S. Spicher and S. Grimme, J. Chem. Theory Comput., 2021, 17, 1701-1714
     DOI: 10.1021/acs.jctc.0c01306
   
   for ONIOM refer to:
   * C. Plett, A. Katbashev, S. Ehlert, S. Grimme, M. Bursch,
     Phys. Chem. Chem. Phys., 2023, 25, 17860-17868. DOI: 10.1039/D3CP02178E
   
   for DIPRO refer to:
   * J. Kohn, N. Gildemeister, S. Grimme, D. Fazzi, A. Hansen,
     J. Chem. Phys., 2023, just accepted.
   
   for PTB refer to:
   * S. Grimme, M. Mueller, A. Hansen, J. Chem. Phys., 2023, 158, 124111.
     DOI: 10.1063/5.0137838
   
   with help from (in alphabetical order)
   P. Atkinson, C. Bannwarth, F. Bohle, G. Brandenburg, E. Caldeweyher
   M. Checinski, S. Dohm, S. Ehlert, S. Ehrlich, I. Gerasimov, C. Hölzer
   A. Katbashev, J. Kohn, J. Koopman, C. Lavigne, S. Lehtola, F. März, M. Müller,
   F. Musil, H. Neugebauer, J. Pisarek, C. Plett, P. Pracht, F. Pultar,
   J. Seibert, P. Shushkov, S. Spicher, M. Stahn, M. Steiner, T. Strunk,
   J. Stückrath, T. Rose, and J. Unsleber
   
 * started run on 2026/09/17 at 00:40:30.834     
   ID    Z sym.   atoms
    1    6 C      1-8
    2    1 H      9-26

           -------------------------------------------------
          |                Calculation Setup                |
           -------------------------------------------------

          program call               : C:\ORCA_6.1.1\xtb-6.7.1pre\xtb.exe input.xyz --gfn 2 --chrg 0 --uhf 0 --opt tight --json
          coordinate file            : input.xyz
          omp threads                :                     4


           -------------------------------------------------
          |                 G F N 2 - x T B                 |
           -------------------------------------------------

        Reference                      10.1021/acs.jctc.8b01176
      * Hamiltonian:
        H0-scaling (s, p, d)           1.850000    2.230000    2.230000
        zeta-weighting                 0.500000
      * Dispersion:
        s8                             2.700000
        a1                             0.520000
        a2                             5.000000
        s9                             5.000000
      * Repulsion:
        kExp                           1.500000    1.000000
        rExp                           1.000000
      * Coulomb:
        alpha                          2.000000
        third order                    shell-resolved
        anisotropic                    true
        a3                             3.000000
        a5                             4.000000
        cn-shift                       1.200000
        cn-exp                         4.000000
        max-rad                        5.000000

q/qsh data taken from xtbrestart
CAMM data taken from xtbrestart

          ...................................................
          :                      SETUP                      :
          :.................................................:
          :  # basis functions                  50          :
          :  # atomic orbitals                  50          :
          :  # shells                           34          :
          :  # electrons                        50          :
          :  max. iterations                   250          :
          :  Hamiltonian                  GFN2-xTB          :
          :  restarted?                       true          :
          :  GBSA solvation                  false          :
          :  PC potential                    false          :
          :  electronic temp.          300.0000000     K    :
          :  accuracy                    1.0000000          :
          :  -> integral cutoff          0.2500000E+02      :
          :  -> integral neglect         0.1000000E-07      :
          :  -> SCF convergence          0.1000000E-05 Eh   :
          :  -> wf. convergence          0.1000000E-03 e    :
          :  Broyden damping             0.4000000          :
          :  net charge                          0          :
          :  unpaired electrons                  0          :
          ...................................................

 iter      E             dE          RMSdq      gap      omega  full diag
   1    -26.7075041 -0.267075E+02  0.105E-01   12.60       0.0  T
   2    -26.7075145 -0.104132E-04  0.601E-02   12.60       1.0  T
   3    -26.7075150 -0.545555E-06  0.884E-03   12.60       2.2  T
   4    -26.7075151 -0.392906E-07  0.208E-03   12.60       9.4  T
   5    -26.7075151 -0.172140E-08  0.797E-04   12.60      24.6  T
   6    -26.7075151 -0.114980E-08  0.144E-04   12.60     136.1  T

   *** convergence criteria satisfied after 6 iterations ***

         #    Occupation            Energy/Eh            Energy/eV
      -------------------------------------------------------------
         1        2.0000           -0.6223800             -16.9358
       ...           ...                  ...                  ...
        19        2.0000           -0.4430030             -12.0547
        20        2.0000           -0.4353926             -11.8476
        21        2.0000           -0.4310489             -11.7294
        22        2.0000           -0.4222025             -11.4887
        23        2.0000           -0.4190956             -11.4042
        24        2.0000           -0.4157836             -11.3140
        25        2.0000           -0.4125729             -11.2267 (HOMO)
        26                          0.0504585               1.3730 (LUMO)
        27                          0.0894475               2.4340
        28                          0.0974396               2.6515
        29                          0.1120043               3.0478
        30                          0.1157280               3.1491
       ...                                ...                  ...
        50                          0.3135962               8.5334
      -------------------------------------------------------------
                  HL-Gap            0.4630314 Eh           12.5997 eV
             Fermi-level           -0.1810572 Eh           -4.9268 eV

 SCC (total)                   0 d,  0 h,  0 min,  0.007 sec
 SCC setup                      ...        0 min,  0.000 sec (  0.000%)
 Dispersion                     ...        0 min,  0.000 sec (  0.000%)
 classical contributions        ...        0 min,  0.000 sec (  0.000%)
 integral evaluation            ...        0 min,  0.001 sec ( 14.285%)
 iterations                     ...        0 min,  0.004 sec ( 57.142%)
 molecular gradient             ...        0 min,  0.002 sec ( 28.573%)
 printout                       ...        0 min,  0.000 sec (  0.000%)

         :::::::::::::::::::::::::::::::::::::::::::::::::::::
         ::                     SUMMARY                     ::
         :::::::::::::::::::::::::::::::::::::::::::::::::::::
         :: total energy             -26.323186904187 Eh    ::
         :: gradient norm              0.019204338992 Eh/a0 ::
         :: HOMO-LUMO gap             12.599726219262 eV    ::
         ::.................................................::
         :: SCC energy               -26.707541884630 Eh    ::
         :: -> isotropic ES            0.004969113450 Eh    ::
         :: -> anisotropic ES          0.009360768945 Eh    ::
         :: -> anisotropic XC          0.016823298466 Eh    ::
         :: -> dispersion             -0.015658170660 Eh    ::
         :: repulsion energy           0.384354980443 Eh    ::
         :: add. restraining           0.000000000000 Eh    ::
         :: total charge              -0.000000000000 e     ::
         :::::::::::::::::::::::::::::::::::::::::::::::::::::

      ----------------------------------------------------------- 
     |                   =====================                   |
     |                        A N C O P T                        |
     |                   =====================                   |
     |               Approximate Normal Coordinate               |
     |                Rational Function Optimizer                |
      ----------------------------------------------------------- 
      ----------------------------------------------------------- 
     |                   =====================                   |
     |                        A N C O P T                        |
     |                   =====================                   |
     |               Approximate Normal Coordinate               |
     |                Rational Function Optimizer                |
      ----------------------------------------------------------- 

          ...................................................
          :                      SETUP                      :
          :.................................................:
          :   optimization level             tight          :
          :   max. optcycles                   200          :
          :   ANC micro-cycles                  20          :
          :   degrees of freedom                72          :
          :.................................................:
          :   RF solver                   davidson          :
          :   write xtbopt.log                true          :
          :   linear?                        false          :
          :   energy convergence         0.1000000E-05 Eh   :
          :   grad. convergence          0.8000000E-03 Eh/α :
          :   maxmium RF displ.          1.0000000          :
          :   Hlow (freq-cutoff)         0.1000000E-01      :
          :   Hmax (freq-cutoff)         5.0000000          :
          :   S6 in model hess.         20.0000000          :
          ...................................................

generating ANC from exact Hessian ...
Using Lindh-Hessian (1995)
 Shifting diagonal of input Hessian by   8.934550891933639E-003
 Lowest  eigenvalues of input Hessian
    0.000000    0.000000    0.000000    0.000000    0.000000    0.000000
    0.010000    0.010400    0.010605    0.013520    0.014178    0.015104
    0.016532    0.017546    0.018358    0.019672    0.022684    0.024112
 Highest eigenvalues
    1.178925    1.195281    1.219189    1.246336    1.249881    1.290049
 

........................................................................
.............................. CYCLE    1 ..............................
........................................................................

 iter      E             dE          RMSdq      gap      omega  full diag
   1    -26.7075151 -0.267075E+02  0.485E-05   12.60       0.0  T
   2    -26.7075151 -0.774847E-11  0.245E-05   12.60     800.7  T
   3    -26.7075151 -0.621725E-12  0.979E-06   12.60    2003.6  T
     SCC iter.                  ...        0 min,  0.001 sec
     gradient                   ...        0 min,  0.002 sec
 * total energy  :   -26.3231869 Eh     change       -0.5308820E-10 Eh
   gradient norm :     0.0192040 Eh/α   predicted     0.0000000E+00 (-100.00%)
   displ. norm   :     0.0999501 α      lambda       -0.1158464E-02
   maximum displ.:     0.0417355 α      in ANC's #31, #13, #20, ...

........................................................................
.............................. CYCLE    2 ..............................
........................................................................

 iter      E             dE          RMSdq      gap      omega  full diag
   1    -26.7193230 -0.267193E+02  0.951E-02   12.58       0.0  T
   2    -26.7193286 -0.553552E-05  0.551E-02   12.58       1.0  T
   3    -26.7193290 -0.388575E-06  0.537E-03   12.58       3.7  T
   4    -26.7193290 -0.270052E-07  0.172E-03   12.58      11.4  T
   5    -26.7193290 -0.513548E-09  0.715E-04   12.58      27.4  T
   6    -26.7193290 -0.130898E-08  0.984E-05   12.58     199.4  T
     SCC iter.                  ...        0 min,  0.003 sec
     gradient                   ...        0 min,  0.002 sec
 * total energy  :   -26.3238241 Eh     change       -0.6372437E-03 Eh
   gradient norm :     0.0059110 Eh/α   predicted    -0.5850189E-03 (  -8.20%)
   displ. norm   :     0.0465254 α      lambda       -0.9041158E-04
   maximum displ.:     0.0233993 α      in ANC's #12, #6, #7, ...

........................................................................
.............................. CYCLE    3 ..............................
........................................................................

 iter      E             dE          RMSdq      gap      omega  full diag
   1    -26.7223564 -0.267224E+02  0.246E-02   12.63       0.0  T
   2    -26.7223572 -0.765965E-06  0.137E-02   12.63       1.4  T
   3    -26.7223572 -0.164724E-07  0.280E-03   12.63       7.0  T
   4    -26.7223572 -0.528656E-08  0.396E-04   12.63      49.5  T
   5    -26.7223572 -0.460830E-09  0.203E-04   12.63      96.8  T
     SCC iter.                  ...        0 min,  0.002 sec
     gradient                   ...        0 min,  0.002 sec
 * total energy  :   -26.3238756 Eh     change       -0.5141610E-04 Eh
   gradient norm :     0.0011482 Eh/α   predicted    -0.4560041E-04 ( -11.31%)
   displ. norm   :     0.0327958 α      lambda       -0.8326325E-05
   maximum displ.:     0.0154947 α      in ANC's #6, #2, #12, ...

........................................................................
.............................. CYCLE    4 ..............................
........................................................................

 iter      E             dE          RMSdq      gap      omega  full diag
   1    -26.7226189 -0.267226E+02  0.103E-02   12.64       0.0  T
   2    -26.7226189 -0.461407E-07  0.603E-03   12.64       3.3  T
   3    -26.7226189 -0.208685E-08  0.609E-04   12.64      32.2  T
   4    -26.7226189 -0.227126E-08  0.193E-04   12.64     101.5  T
     SCC iter.                  ...        0 min,  0.002 sec
     gradient                   ...        0 min,  0.002 sec
 * total energy  :   -26.3238823 Eh     change       -0.6705797E-05 Eh
   gradient norm :     0.0007314 Eh/α   predicted    -0.4166203E-05 ( -37.87%)
   displ. norm   :     0.0269726 α      lambda       -0.3127506E-05
   maximum displ.:     0.0135762 α      in ANC's #4, #2, #1, ...

........................................................................
.............................. CYCLE    5 ..............................
........................................................................

 iter      E             dE          RMSdq      gap      omega  full diag
   1    -26.7223557 -0.267224E+02  0.595E-03   12.63       0.0  T
   2    -26.7223557 -0.515281E-08  0.352E-03   12.63       5.6  T
   3    -26.7223557 -0.747914E-09  0.169E-04   12.63     115.8  T
   4    -26.7223557 -0.717932E-10  0.763E-05   12.63     257.0  T
     SCC iter.                  ...        0 min,  0.001 sec
     gradient                   ...        0 min,  0.002 sec
 * total energy  :   -26.3238861 Eh     change       -0.3818713E-05 Eh
   gradient norm :     0.0005346 Eh/α   predicted    -0.1565137E-05 ( -59.01%)
   displ. norm   :     0.0768980 α      lambda       -0.6577613E-05
   maximum displ.:     0.0424359 α      in ANC's #4, #1, #2, ...

........................................................................
.............................. CYCLE    6 ..............................
........................................................................

 iter      E             dE          RMSdq      gap      omega  full diag
   1    -26.7221106 -0.267221E+02  0.139E-02   12.63       0.0  T
   2    -26.7221106 -0.144387E-07  0.827E-03   12.63       2.4  T
   3    -26.7221106 -0.315032E-08  0.307E-04   12.63      63.9  T
   4    -26.7221106 -0.295795E-09  0.155E-04   12.63     126.7  T
     SCC iter.                  ...        0 min,  0.002 sec
     gradient                   ...        0 min,  0.002 sec
 * total energy  :   -26.3238926 Eh     change       -0.6479178E-05 Eh
   gradient norm :     0.0004643 Eh/α   predicted    -0.3302446E-05 ( -49.03%)
   displ. norm   :     0.0487254 α      lambda       -0.2398879E-05
   maximum displ.:     0.0272567 α      in ANC's #4, #1, #5, ...

........................................................................
.............................. CYCLE    7 ..............................
........................................................................

 iter      E             dE          RMSdq      gap      omega  full diag
   1    -26.7222363 -0.267222E+02  0.952E-03   12.63       0.0  T
   2    -26.7222363 -0.450227E-08  0.566E-03   12.63       3.5  T
   3    -26.7222363 -0.137870E-08  0.211E-04   12.63      93.0  T
   4    -26.7222363 -0.226940E-09  0.109E-04   12.63     179.9  T
     SCC iter.                  ...        0 min,  0.002 sec
     gradient                   ...        0 min,  0.002 sec
 * total energy  :   -26.3238949 Eh     change       -0.2312871E-05 Eh
   gradient norm :     0.0003216 Eh/α   predicted    -0.1201253E-05 ( -48.06%)
   displ. norm   :     0.0291435 α      lambda       -0.1086833E-05
   maximum displ.:     0.0146373 α      in ANC's #1, #4, #3, ...

........................................................................
.............................. CYCLE    8 ..............................
........................................................................

 iter      E             dE          RMSdq      gap      omega  full diag
   1    -26.7222842 -0.267223E+02  0.537E-03   12.63       0.0  T
   2    -26.7222842 -0.294566E-08  0.320E-03   12.63       6.1  T
   3    -26.7222842 -0.434319E-09  0.164E-04   12.63     119.6  T
   4    -26.7222842 -0.226088E-09  0.737E-05   12.63     266.1  T
     SCC iter.                  ...        0 min,  0.002 sec
     gradient                   ...        0 min,  0.002 sec
 * total energy  :   -26.3238960 Eh     change       -0.1122092E-05 Eh
   gradient norm :     0.0001488 Eh/α   predicted    -0.5449452E-06 ( -51.43%)
   displ. norm   :     0.0226055 α      lambda       -0.7880216E-06
   maximum displ.:     0.0134970 α      in ANC's #3, #1, #8, ...

........................................................................
.............................. CYCLE    9 ..............................
........................................................................

 iter      E             dE          RMSdq      gap      omega  full diag
   1    -26.7223865 -0.267224E+02  0.455E-03   12.63       0.0  T
   2    -26.7223865 -0.145440E-08  0.271E-03   12.63       7.2  T
   3    -26.7223865 -0.349175E-09  0.974E-05   12.63     201.3  T
   4    -26.7223865 -0.212843E-10  0.490E-05   12.63     399.9  T
     SCC iter.                  ...        0 min,  0.001 sec
     gradient                   ...        0 min,  0.002 sec
 * total energy  :   -26.3238969 Eh     change       -0.9420878E-06 Eh
   gradient norm :     0.0001632 Eh/α   predicted    -0.3970020E-06 ( -57.86%)
   displ. norm   :     0.0311942 α      lambda       -0.9555899E-06
   maximum displ.:     0.0198024 α      in ANC's #3, #8, #1, ...

   *** GEOMETRY OPTIMIZATION CONVERGED AFTER 9 ITERATIONS ***

------------------------------------------------------------------------
 total energy gain   :        -0.0007100 Eh       -0.4456 kcal/mol
 total RMSD          :         0.0543423 a0        0.0288 Å
 total power (kW/mol):        -0.2071346 (step)  -33.8947 (real)
------------------------------------------------------------------------

 ANCopt (total)                0 d,  0 h,  0 min,  0.055 sec
 optimizer setup                ...        0 min,  0.002 sec (  3.637%)
 model hessian                  ...        0 min,  0.010 sec ( 18.182%)
 ANC generation                 ...        0 min,  0.000 sec (  0.000%)
 coordinate transformation      ...        0 min,  0.000 sec (  0.000%)
 single point calculation       ...        0 min,  0.041 sec ( 74.545%)
 optimization log               ...        0 min,  0.002 sec (  3.637%)
 hessian update                 ...        0 min,  0.000 sec (  0.000%)
 rational function              ...        0 min,  0.000 sec (  0.000%)

================
 final structure:
================
26
 xtb: 6.7.1pre (5071a88)
C            4.13676909945290       -0.36320468107727        0.04384038491810
C            2.84108691803766        0.28178483851547       -0.43248739836631
C            1.61226848083214       -0.41864983841853        0.14238498316698
C            0.30912896353671        0.22086822640030       -0.33189042892658
C           -0.91102345738357       -0.46734729509114        0.27647033636563
C           -2.24893659147583        0.03806728149067       -0.27441476674154
C           -2.50845747831666        1.49295348123913        0.10900130120101
C           -3.38663241750789       -0.84355812760056        0.23867962525255
H            4.20638192031074       -0.32251693475742        1.12880196195858
H            4.99865433272292        0.15134494336607       -0.37482303676163
H            4.17818720011964       -1.40656710098144       -0.26161231940200
H            2.82886605700230        1.33301528472651       -0.13500378466683
H            2.79823379314971        0.24725856409862       -1.52366024531653
H            1.62762207935859       -1.47085638546832       -0.15229040438693
H            1.65532541774529       -0.38174409339651        1.23368482479626
H            0.31523123524235        1.27739142419499       -0.05882185627190
H            0.25316372484006        0.15904409586477       -1.42158659320305
H           -0.89761267897290       -0.33363875442901        1.36089247386180
H           -0.83802620005469       -1.53975781360046        0.07745203309527
H           -2.22130776342556       -0.03403531983735       -1.36796195871380
H           -3.48875809788860        1.80646367266613       -0.24361361524391
H           -1.76556660392490        2.15332865749598       -0.32993898050582
H           -2.48056534407548        1.60990396164441        1.19050942739582
H           -4.34025727735068       -0.51363390025713       -0.16736285303361
H           -3.44161783616856       -0.79521086841583        1.32432842043351
H           -3.23215647580571       -1.88070331837218       -0.05057753090506
 
 Bond Distances (Angstroems)
 ---------------------------
C1-C2=1.5237         C1-H9=1.0880         C1-H10=1.0876        C1-H11=1.0879        C2-C1=1.5237         C2-C3=1.5268         
C2-H12=1.0926        C2-H13=1.0926        C3-C2=1.5268         C3-C4=1.5271         C3-H14=1.0928        C3-H15=1.0928        
C4-C3=1.5271         C4-C5=1.5273         C4-H16=1.0913        C4-H17=1.0929        C5-C4=1.5273         C5-C6=1.5326         
C5-H18=1.0927        C5-H19=1.0932        C6-C5=1.5326         C6-C7=1.5268         C6-C8=1.5280         C6-H20=1.0963        
C7-C6=1.5268         C7-H21=1.0879        C7-H22=1.0866        C7-H23=1.0882        C8-C6=1.5280         C8-H24=1.0877        
C8-H25=1.0881        C8-H26=1.0878        H9-C1=1.0880         H10-C1=1.0876        H11-C1=1.0879        H12-C2=1.0926        
H13-C2=1.0926        H14-C3=1.0928        H15-C3=1.0928        H16-C4=1.0913        H17-C4=1.0929        H18-C5=1.0927        
H19-C5=1.0932        H20-C6=1.0963        H21-C7=1.0879        H22-C7=1.0866        H23-C7=1.0882        H24-C8=1.0877        
H25-C8=1.0881        H26-C8=1.0878        
 C  H  Rav=1.0904 sigma=0.0028  Rmin=1.0866  Rmax=1.0963    18
 C  C  Rav=1.5275 sigma=0.0025  Rmin=1.5237  Rmax=1.5326     7
 
 selected bond angles (degree)
 --------------------
H9-C1-C2=110.51                H10-C1-C2=110.69               H10-C1-H9=108.39               H11-C1-C2=110.52               
H11-C1-H9=108.27               H11-C1-H10=108.39              C3-C2-C1=111.87                H12-C2-C1=109.37               
H12-C2-C3=109.26               H13-C2-C1=109.40               H13-C2-C3=109.27               H13-C2-H12=107.57              
C4-C3-C2=112.19                H14-C3-C2=109.20               H14-C3-C4=109.36               H15-C3-C2=109.20               
H15-C3-C4=109.25               H15-C3-H14=107.53              C5-C4-C3=111.67                H16-C4-C3=108.84               
H16-C4-C5=109.94               H17-C4-C3=109.25               H17-C4-C5=109.32               H17-C4-H16=107.73              
C6-C5-C4=113.93                H18-C5-C4=109.29               H18-C5-C6=109.09               H19-C5-C4=108.43               
H19-C5-C6=108.44               H19-C5-H18=107.45              C7-C6-C5=111.86                C8-C6-C5=109.82                
C8-C6-C7=109.81                H20-C6-C5=108.35               H20-C6-C7=108.51               H20-C6-C8=108.41               
H21-C7-C6=110.27               H22-C7-C6=111.19               H22-C7-H21=108.06              H23-C7-C6=110.34               
H23-C7-H21=108.32              H23-C7-H22=108.58              H24-C8-C6=110.63               H25-C8-C6=110.30               
H25-C8-H24=108.34              H26-C8-C6=110.80               H26-C8-H24=108.33              H26-C8-H25=108.35              
 
 selected dihedral angles (degree)
 ---------------------------------
C3-C2-C1-H9=300.21            C3-C2-C1-H10=180.12           C3-C2-C1-H11= 60.03           H12-C2-C1-H9= 61.40           
H12-C2-C1-H10=301.31          H12-C2-C1-H11=181.22          H13-C2-C1-H9=178.99           H13-C2-C1-H10= 58.90          
H13-C2-C1-H11=298.81          C4-C3-C2-C1=180.08            C4-C3-C2-H12= 58.82           C4-C3-C2-H13=301.37           
H14-C3-C2-C1=301.49           H14-C3-C2-H12=180.23          H14-C3-C2-H13= 62.78          H15-C3-C2-C1= 58.81           
H15-C3-C2-H12=297.56          H15-C3-C2-H13=180.11          C5-C4-C3-C2=181.37            C5-C4-C3-H14= 60.05           
C5-C4-C3-H15=302.61           H16-C4-C3-C2=302.94           H16-C4-C3-H14=181.62          H16-C4-C3-H15= 64.17          
H17-C4-C3-C2= 60.32           H17-C4-C3-H14=299.00          H17-C4-C3-H15=181.56          C6-C5-C4-C3=185.95            
C6-C5-C4-H16= 65.02           C6-C5-C4-H17=306.96           H18-C5-C4-C3= 63.64           H18-C5-C4-H16=302.72          
H18-C5-C4-H17=184.65          H19-C5-C4-C3=306.79           H19-C5-C4-H16=185.87          H19-C5-C4-H17= 67.81          
C7-C6-C5-C4=293.97            C7-C6-C5-H18= 56.39           C7-C6-C5-H19=173.13           C8-C6-C5-C4=171.78            
C8-C6-C5-H18=294.20           C8-C6-C5-H19= 50.94           H20-C6-C5-C4= 53.54           H20-C6-C5-H18=175.96          
H20-C6-C5-H19=292.70          H21-C7-C6-C5=183.36           H21-C7-C6-C8=305.55           H21-C7-C6-H20= 63.88          
H22-C7-C6-C5= 63.52           H22-C7-C6-C8=185.71           H22-C7-C6-H20=304.04          H23-C7-C6-C5=302.97           
H23-C7-C6-C8= 65.17           H23-C7-C6-H20=183.50          H24-C8-C6-C5=181.62           H24-C8-C6-C7= 58.22           
H24-C8-C6-H20=299.82          H25-C8-C6-C5= 61.76           H25-C8-C6-C7=298.36           H25-C8-C6-H20=179.96          
H26-C8-C6-C5=301.78           H26-C8-C6-C7=178.38           H26-C8-C6-H20= 59.99          
           -------------------------------------------------
          |                Final Singlepoint                |
           -------------------------------------------------

          ...................................................
          :                      SETUP                      :
          :.................................................:
          :  # basis functions                  50          :
          :  # atomic orbitals                  50          :
          :  # shells                           34          :
          :  # electrons                        50          :
          :  max. iterations                   250          :
          :  Hamiltonian                  GFN2-xTB          :
          :  restarted?                      false          :
          :  GBSA solvation                  false          :
          :  PC potential                    false          :
          :  electronic temp.          300.0000000     K    :
          :  accuracy                    1.0000000          :
          :  -> integral cutoff          0.2500000E+02      :
          :  -> integral neglect         0.1000000E-07      :
          :  -> SCF convergence          0.1000000E-05 Eh   :
          :  -> wf. convergence          0.1000000E-03 e    :
          :  Broyden damping             0.4000000          :
          :  net charge                          0          :
          :  unpaired electrons                  0          :
          ...................................................

 iter      E             dE          RMSdq      gap      omega  full diag
   1    -26.7223865 -0.267224E+02  0.148E-05   12.63       0.0  T
   2    -26.7223865 -0.618172E-12  0.844E-06   12.63    2322.8  T
   3    -26.7223865  0.248690E-13  0.336E-06   12.63    5843.0  T

   *** convergence criteria satisfied after 3 iterations ***

         #    Occupation            Energy/Eh            Energy/eV
      -------------------------------------------------------------
         1        2.0000           -0.6236163             -16.9695
       ...           ...                  ...                  ...
        19        2.0000           -0.4437023             -12.0738
        20        2.0000           -0.4353878             -11.8475
        21        2.0000           -0.4305991             -11.7172
        22        2.0000           -0.4216000             -11.4723
        23        2.0000           -0.4191804             -11.4065
        24        2.0000           -0.4157348             -11.3127
        25        2.0000           -0.4133565             -11.2480 (HOMO)
        26                          0.0507761               1.3817 (LUMO)
        27                          0.0968046               2.6342
        28                          0.1041990               2.8354
        29                          0.1202067               3.2710
        30                          0.1215899               3.3086
       ...                                ...                  ...
        50                          0.3224296               8.7738
      -------------------------------------------------------------
                  HL-Gap            0.4641326 Eh           12.6297 eV
             Fermi-level           -0.1812902 Eh           -4.9332 eV

 SCC (total)                   0 d,  0 h,  0 min,  0.003 sec
 SCC setup                      ...        0 min,  0.000 sec (  0.000%)
 Dispersion                     ...        0 min,  0.000 sec (  0.000%)
 classical contributions        ...        0 min,  0.000 sec (  0.000%)
 integral evaluation            ...        0 min,  0.000 sec (  0.000%)
 iterations                     ...        0 min,  0.002 sec ( 66.661%)
 molecular gradient             ...        0 min,  0.001 sec ( 33.339%)
 printout                       ...        0 min,  0.000 sec (  0.000%)

         :::::::::::::::::::::::::::::::::::::::::::::::::::::
         ::                     SUMMARY                     ::
         :::::::::::::::::::::::::::::::::::::::::::::::::::::
         :: total energy             -26.323896944825 Eh    ::
         :: gradient norm              0.000163372840 Eh/a0 ::
         :: HOMO-LUMO gap             12.629690647830 eV    ::
         ::.................................................::
         :: SCC energy               -26.722415380307 Eh    ::
         :: -> isotropic ES            0.005172533179 Eh    ::
         :: -> anisotropic ES          0.008866236867 Eh    ::
         :: -> anisotropic XC          0.016319486267 Eh    ::
         :: -> dispersion             -0.015676812231 Eh    ::
         :: repulsion energy           0.398518435482 Eh    ::
         :: add. restraining           0.000000000000 Eh    ::
         :: total charge               0.000000000000 e     ::
         :::::::::::::::::::::::::::::::::::::::::::::::::::::

           -------------------------------------------------
          |                Property Printout                |
           -------------------------------------------------

    * Orbital Energies and Occupations

         #    Occupation            Energy/Eh            Energy/eV
      -------------------------------------------------------------
         1        2.0000           -0.6236163             -16.9695
       ...           ...                  ...                  ...
        13        2.0000           -0.4842261             -13.1765
        14        2.0000           -0.4804401             -13.0734
        15        2.0000           -0.4678314             -12.7303
        16        2.0000           -0.4585915             -12.4789
        17        2.0000           -0.4531735             -12.3315
        18        2.0000           -0.4476755             -12.1819
        19        2.0000           -0.4437023             -12.0738
        20        2.0000           -0.4353878             -11.8475
        21        2.0000           -0.4305991             -11.7172
        22        2.0000           -0.4216000             -11.4723
        23        2.0000           -0.4191804             -11.4065
        24        2.0000           -0.4157348             -11.3127
        25        2.0000           -0.4133565             -11.2480 (HOMO)
        26                          0.0507761               1.3817 (LUMO)
        27                          0.0968046               2.6342
        28                          0.1041990               2.8354
        29                          0.1202067               3.2710
        30                          0.1215899               3.3086
        31                          0.1299182               3.5353
        32                          0.1434855               3.9044
        33                          0.1444344               3.9303
        34                          0.1585660               4.3148
        35                          0.1711879               4.6583
        36                          0.1739628               4.7338
       ...                                ...                  ...
        50                          0.3224296               8.7738
      -------------------------------------------------------------
                  HL-Gap            0.4641326 Eh           12.6297 eV
             Fermi-level           -0.1812902 Eh           -4.9332 eV

     #   Z          covCN         q      C6AA      α(0)
     1   6 C        3.752    -0.102    22.507     6.765
     2   6 C        3.801    -0.053    21.520     6.605
     3   6 C        3.803    -0.059    21.630     6.621
     4   6 C        3.802    -0.058    21.615     6.619
     5   6 C        3.806    -0.063    21.704     6.632
     6   6 C        3.849    -0.010    20.719     6.474
     7   6 C        3.756    -0.106    22.573     6.774
     8   6 C        3.757    -0.106    22.581     6.775
     9   1 H        0.925     0.033     2.543     2.494
    10   1 H        0.925     0.032     2.554     2.499
    11   1 H        0.925     0.033     2.544     2.494
    12   1 H        0.924     0.028     2.615     2.529
    13   1 H        0.924     0.028     2.613     2.528
    14   1 H        0.924     0.029     2.603     2.523
    15   1 H        0.924     0.029     2.594     2.519
    16   1 H        0.924     0.031     2.577     2.510
    17   1 H        0.924     0.027     2.628     2.535
    18   1 H        0.924     0.031     2.575     2.510
    19   1 H        0.924     0.030     2.593     2.518
    20   1 H        0.924     0.026     2.649     2.545
    21   1 H        0.925     0.033     2.551     2.498
    22   1 H        0.925     0.033     2.538     2.491
    23   1 H        0.925     0.034     2.525     2.485
    24   1 H        0.925     0.033     2.538     2.491
    25   1 H        0.925     0.034     2.524     2.485
    26   1 H        0.925     0.031     2.569     2.506

 Mol. C6AA /au·bohr⁶  :       4378.798184
 Mol. C8AA /au·bohr⁸  :      90660.616228
 Mol. α(0) /au        :         98.428186


Wiberg/Mayer (AO) data.
largest (>0.10) Wiberg bond orders for each atom

 ---------------------------------------------------------------------------
     #   Z sym  total        # sym  WBO       # sym  WBO       # sym  WBO
 ---------------------------------------------------------------------------
     1   6 C    3.997 --     2 C    1.019    11 H    0.988     9 H    0.988
                            10 H    0.988
     2   6 C    3.998 --     1 C    1.019     3 C    1.008    13 H    0.979
                            12 H    0.979
     3   6 C    3.997 --     2 C    1.008     4 C    1.007    15 H    0.978
                            14 H    0.977
     4   6 C    3.998 --     5 C    1.007     3 C    1.007    17 H    0.977
                            16 H    0.976
     5   6 C    3.997 --     4 C    1.007     6 C    0.996    18 H    0.977
                            19 H    0.976
     6   6 C    3.996 --     7 C    1.010     8 C    1.008     5 C    0.996
                            20 H    0.969
     7   6 C    3.997 --     6 C    1.010    23 H    0.987    21 H    0.986
                            22 H    0.985
     8   6 C    3.997 --     6 C    1.008    25 H    0.987    26 H    0.987
                            24 H    0.987
     9   1 H    0.999 --     1 C    0.988
    10   1 H    0.999 --     1 C    0.988
    11   1 H    0.999 --     1 C    0.988
    12   1 H    0.999 --     2 C    0.979
    13   1 H    0.999 --     2 C    0.979
    14   1 H    0.999 --     3 C    0.977
    15   1 H    0.999 --     3 C    0.978
    16   1 H    0.999 --     4 C    0.976
    17   1 H    0.999 --     4 C    0.977
    18   1 H    0.999 --     5 C    0.977
    19   1 H    0.999 --     5 C    0.976
    20   1 H    0.999 --     6 C    0.969
    21   1 H    0.999 --     7 C    0.986
    22   1 H    0.999 --     7 C    0.985
    23   1 H    0.999 --     7 C    0.987
    24   1 H    0.999 --     8 C    0.987
    25   1 H    0.999 --     8 C    0.987
    26   1 H    0.999 --     8 C    0.987
 ---------------------------------------------------------------------------

Topologies differ in total number of bonds
Writing topology from bond orders to xtbtopo.mol

molecular dipole:
                 x           y           z       tot (Debye)
 q only:       -0.007       0.006       0.016
   full:       -0.004       0.002       0.017       0.045
molecular quadrupole (traceless):
                xx          xy          yy          xz          yz          zz
 q only:        0.294      -0.063      -0.034      -0.043      -0.128      -0.260
  q+dip:       -1.539      -0.043       0.141       0.023       0.685       1.398
   full:       -0.621      -0.049       0.043      -0.013       0.306       0.578

           -------------------------------------------------
          |                Geometry Summary                 |
           -------------------------------------------------

      molecular mass/u    :      114.2288207
   center of mass at/Å    :       -0.0150067      -0.0056913      -0.0220016
  moments of inertia/u·Å² :        0.8781083E+02   0.7914073E+03   0.8414742E+03
rotational constants/cm⁻¹ :        0.1919767E+00   0.2130083E-01   0.2003345E-01

 * 25 selected distances

     #   Z          #   Z                                           value/Å
     1   6 C        2   6 C                                       1.5237101
     2   6 C        3   6 C                                       1.5267882
     3   6 C        4   6 C                                       1.5271194
     4   6 C        5   6 C                                       1.5272576
     5   6 C        6   6 C                                       1.5326220 (max)
     6   6 C        7   6 C                                       1.5267787
     6   6 C        8   6 C                                       1.5280319
     1   6 C        9   1 H                                       1.0879537
     1   6 C       10   1 H                                       1.0876060
     1   6 C       11   1 H                                       1.0879440
     2   6 C       12   1 H                                       1.0925802
     2   6 C       13   1 H                                       1.0925598
     3   6 C       14   1 H                                       1.0927983
     3   6 C       15   1 H                                       1.0927724
     4   6 C       16   1 H                                       1.0912585
     4   6 C       17   1 H                                       1.0928826
     5   6 C       18   1 H                                       1.0927165
     5   6 C       19   1 H                                       1.0931612
     6   6 C       20   1 H                                       1.0962700
     7   6 C       21   1 H                                       1.0879409
     7   6 C       22   1 H                                       1.0865777 (min)
     7   6 C       23   1 H                                       1.0881707
     8   6 C       24   1 H                                       1.0877137
     8   6 C       25   1 H                                       1.0881151
     8   6 C       26   1 H                                       1.0877513

 * 2 distinct bonds (by element types)

   Z      Z             #   av. dist./Å        max./Å        min./Å
   1 H    6 C          18     1.0903762     1.0962700     1.0865777
   6 C    6 C           7     1.5274726     1.5326220     1.5237101


optimized geometry written to: xtbopt.xyz


           -------------------------------------------------
          | TOTAL ENERGY              -26.323896944825 Eh   |
          | GRADIENT NORM               0.000163372840 Eh/α |
          | HOMO-LUMO GAP              12.629690647830 eV   |
           -------------------------------------------------

------------------------------------------------------------------------
 * finished run on 2026/09/17 at 00:40:30.926     
------------------------------------------------------------------------
 total:
 * wall-time:     0 d,  0 h,  0 min,  0.090 sec
 *  cpu-time:     0 d,  0 h,  0 min,  0.375 sec
 * ratio c/w:     4.167 speedup
 SCF:
 * wall-time:     0 d,  0 h,  0 min,  0.007 sec
 *  cpu-time:     0 d,  0 h,  0 min,  0.016 sec
 * ratio c/w:     2.232 speedup
 ANC optimizer:
 * wall-time:     0 d,  0 h,  0 min,  0.062 sec
 *  cpu-time:     0 d,  0 h,  0 min,  0.250 sec
 * ratio c/w:     4.032 speedup

