 Entering Gaussian System
 *********************************************
 Gaussian 98:
 frequency output generated by the xtb code
 *********************************************
                         Standard orientation:
 --------------------------------------------------------------------
  Center     Atomic     Atomic              Coordinates (Angstroms)
  Number     Number      Type              X           Y           Z
 --------------------------------------------------------------------
    1          6             0       -2.193509    0.754509   -0.466842
    2          6             0       -1.222543   -0.376764   -0.289721
    3          8             0       -1.162323   -1.323415   -1.031467
    4          6             0       -0.297578   -0.237660    0.911806
    5          6             0        1.099191   -0.736284    0.554551
    6          6             0        1.722895    0.160202   -0.485712
    7          8             0        1.219086    1.149696   -0.945653
    8          8             0        2.935019   -0.270317   -0.850795
    9          1             0       -2.679571    0.995536    0.475292
   10          1             0       -2.934396    0.509316   -1.222752
   11          1             0       -1.624693    1.624661   -0.791648
   12          1             0       -0.709542   -0.845455    1.720550
   13          1             0       -0.260009    0.801424    1.236515
   14          1             0        1.041207   -1.741868    0.132176
   15          1             0        1.756111   -0.771297    1.424862
   16          1             0        3.310650    0.307714   -1.533573
 --------------------------------------------------------------------
     1 basis functions        1 primitive gaussians
     1 alpha electrons        1 beta electrons
 
 Harmonic frequencies (cm**-1), IR intensities (km*mol⁻¹),
 Raman scattering activities (A**4/amu), Raman depolarization ratios,
 reduced masses (AMU), force constants (mDyne/A) and normal coordinates:
                      1                      2                      3
                        a                      a                      a 
 Frequencies --    32.2004                45.8870                57.8623
 Red. masses --    11.7618                14.6862                12.6034
 Frc consts  --     0.0000                 0.0000                 0.0000
 IR Inten    --     7.6610                 2.6749                 0.1770
 Raman Activ --     0.0000                 0.0000                 0.0000
 Depolar     --     0.0000                 0.0000                 0.0000
 Atom AN      X      Y      Z        X      Y      Z        X      Y      Z
   1   6    -0.42  -0.26   0.21    -0.11   0.04   0.25     0.29   0.12  -0.09
   2   6     0.02   0.07  -0.03    -0.01   0.09   0.02     0.20   0.06  -0.02
   3   8     0.40   0.28  -0.25    -0.00   0.23  -0.14     0.38   0.18  -0.15
   4   6    -0.02   0.19  -0.02     0.04  -0.03  -0.01    -0.03  -0.13   0.19
   5   6    -0.02   0.12   0.13     0.00  -0.09  -0.06     0.05   0.04   0.26
   6   6     0.03  -0.05   0.01     0.01  -0.10  -0.07    -0.20  -0.06   0.02
   7   8     0.17   0.01   0.01    -0.21  -0.41  -0.47    -0.44  -0.21  -0.05
   8   8    -0.09  -0.32  -0.09     0.29   0.25   0.42    -0.27  -0.01  -0.16
   9   1    -0.11  -0.15   0.09     0.00  -0.02   0.10     0.03   0.01  -0.05
  10   1    -0.12  -0.13   0.08    -0.06   0.02   0.10     0.13   0.07  -0.08
  11   1    -0.23  -0.01   0.06    -0.06   0.03   0.07     0.12   0.04   0.04
  12   1    -0.03   0.09   0.01     0.01  -0.01  -0.01    -0.03  -0.09  -0.00
  13   1    -0.01   0.07  -0.05     0.03  -0.01   0.01    -0.04  -0.06   0.12
  14   1     0.00   0.01   0.08    -0.03  -0.02  -0.04     0.07  -0.02   0.14
  15   1    -0.02   0.08   0.05     0.01  -0.05  -0.03     0.03   0.11   0.07
  16   1    -0.01  -0.11  -0.04     0.07   0.05   0.10    -0.12  -0.02  -0.09
                      4                      5                      6
                        a                      a                      a 
 Frequencies --   165.0295               202.0180               259.0780
 Red. masses --     1.8947                 9.1481                11.6186
 Frc consts  --     0.0000                 0.0000                 0.0000
 IR Inten    --     1.7078                 4.1236                 5.7715
 Raman Activ --     0.0000                 0.0000                 0.0000
 Depolar     --     0.0000                 0.0000                 0.0000
 Atom AN      X      Y      Z        X      Y      Z        X      Y      Z
   1   6     0.01  -0.01  -0.04     0.06   0.03   0.17     0.06  -0.03  -0.03
   2   6     0.02   0.01   0.01    -0.09  -0.14  -0.05    -0.02  -0.03   0.20
   3   8     0.11   0.06  -0.06    -0.28  -0.04  -0.23     0.35   0.06   0.13
   4   6     0.03   0.02  -0.01    -0.14  -0.30   0.01    -0.13  -0.17   0.27
   5   6    -0.02  -0.09  -0.01     0.14   0.33   0.22    -0.23   0.01  -0.28
   6   6    -0.03  -0.03   0.04     0.06   0.14  -0.00    -0.14   0.14  -0.14
   7   8    -0.09  -0.03   0.13     0.21   0.11  -0.25     0.20   0.27  -0.31
   8   8    -0.03   0.05  -0.02     0.00  -0.12   0.06    -0.16  -0.15   0.20
   9   1     0.39   0.41   0.08     0.14   0.09   0.09     0.01   0.06  -0.03
  10   1    -0.30  -0.21   0.35    -0.08   0.03   0.14     0.03  -0.02  -0.02
  11   1    -0.03  -0.18  -0.56     0.04  -0.04  -0.05     0.06  -0.04  -0.04
  12   1    -0.01   0.04   0.01    -0.00  -0.21  -0.07     0.03  -0.15   0.03
  13   1     0.03   0.02  -0.03    -0.16  -0.12   0.11    -0.07  -0.08   0.18
  14   1    -0.03  -0.02  -0.02     0.22   0.04   0.18    -0.14   0.05  -0.20
  15   1    -0.00  -0.06  -0.01     0.00   0.29   0.10     0.00  -0.14  -0.14
  16   1    -0.02   0.03   0.00     0.02  -0.09  -0.02     0.06  -0.07   0.08
                      7                      8                      9
                        a                      a                      a 
 Frequencies --   353.2805               454.5013               487.3867
 Red. masses --     9.2526                11.0830                 9.0519
 Frc consts  --     0.0000                 0.0000                 0.0000
 IR Inten    --     1.4196                21.6747                13.6266
 Raman Activ --     0.0000                 0.0000                 0.0000
 Depolar     --     0.0000                 0.0000                 0.0000
 Atom AN      X      Y      Z        X      Y      Z        X      Y      Z
   1   6    -0.31  -0.02  -0.34    -0.06  -0.06  -0.09    -0.06   0.17   0.10
   2   6    -0.09   0.21   0.16     0.32   0.25  -0.16     0.16   0.25  -0.36
   3   8    -0.09   0.26   0.16    -0.21   0.01   0.11     0.20  -0.29   0.31
   4   6    -0.02  -0.24   0.20     0.32  -0.08  -0.12    -0.22  -0.02  -0.12
   5   6     0.12  -0.03   0.05     0.25  -0.03  -0.08    -0.15   0.03   0.02
   6   6     0.16  -0.07   0.01    -0.11   0.18   0.00     0.10   0.01   0.13
   7   8     0.08  -0.13   0.04    -0.23   0.14   0.00     0.05  -0.10  -0.03
   8   8     0.22   0.10  -0.21    -0.24  -0.25   0.31     0.07   0.06  -0.13
   9   1    -0.20   0.06  -0.17    -0.02  -0.11  -0.00     0.13  -0.11   0.15
  10   1     0.00  -0.18  -0.13    -0.01  -0.17   0.02    -0.15   0.09   0.14
  11   1    -0.15   0.01  -0.17    -0.20   0.09  -0.06    -0.14   0.14   0.06
  12   1     0.02  -0.24  -0.05     0.03  -0.09  -0.12    -0.14  -0.20  -0.22
  13   1    -0.04  -0.13   0.25     0.11  -0.06   0.07    -0.12  -0.08   0.20
  14   1     0.06  -0.02   0.03     0.11   0.01  -0.07    -0.08   0.04  -0.07
  15   1     0.02   0.02   0.03     0.10  -0.01  -0.04    -0.10  -0.10   0.04
  16   1    -0.02   0.06  -0.06     0.08  -0.18   0.05    -0.08   0.01  -0.09
                     10                     11                     12
                        a                      a                      a 
 Frequencies --   500.3667               575.8268               626.5207
 Red. masses --     6.6216                11.4571                 9.3567
 Frc consts  --     0.0000                 0.0000                 0.0000
 IR Inten    --    14.3484                19.9449                38.3248
 Raman Activ --     0.0000                 0.0000                 0.0000
 Depolar     --     0.0000                 0.0000                 0.0000
 Atom AN      X      Y      Z        X      Y      Z        X      Y      Z
   1   6    -0.05   0.09   0.02    -0.16   0.18   0.01     0.19  -0.20   0.03
   2   6     0.01   0.09  -0.05    -0.34  -0.08   0.08     0.21  -0.00  -0.02
   3   8     0.13  -0.05   0.16     0.28  -0.05   0.09    -0.21   0.04  -0.13
   4   6    -0.03  -0.04  -0.08    -0.01  -0.03  -0.20    -0.12   0.19   0.21
   5   6    -0.03  -0.06  -0.08     0.13   0.17  -0.22    -0.14   0.33  -0.07
   6   6    -0.25  -0.32  -0.42     0.19   0.12  -0.09     0.14  -0.01  -0.14
   7   8     0.08   0.12   0.15    -0.40  -0.04   0.23    -0.25  -0.08   0.18
   8   8     0.01   0.03   0.06     0.21  -0.24   0.09     0.22  -0.20  -0.13
   9   1     0.01  -0.01   0.03    -0.04   0.14  -0.02     0.06  -0.10   0.02
  10   1    -0.04   0.03   0.03    -0.05   0.19  -0.03     0.05  -0.12   0.03
  11   1    -0.04   0.04   0.01     0.12  -0.04   0.03    -0.03  -0.01  -0.01
  12   1    -0.02  -0.03  -0.04     0.10  -0.07  -0.05     0.02  -0.09  -0.02
  13   1     0.03  -0.03   0.02    -0.03  -0.03  -0.00    -0.18   0.03   0.16
  14   1     0.13  -0.16   0.31     0.10   0.04  -0.05    -0.22   0.12  -0.07
  15   1     0.03   0.37  -0.03    -0.02   0.08  -0.02     0.01  -0.07  -0.06
  16   1     0.21   0.27   0.35     0.14  -0.24  -0.08     0.28   0.14   0.25
                     13                     14                     15
                        a                      a                      a 
 Frequencies --   658.3632               800.6875               812.2407
 Red. masses --     6.3738                 9.0563                 7.4433
 Frc consts  --     0.0000                 0.0000                 0.0000
 IR Inten    --   142.4371                16.4995                23.1268
 Raman Activ --     0.0000                 0.0000                 0.0000
 Depolar     --     0.0000                 0.0000                 0.0000
 Atom AN      X      Y      Z        X      Y      Z        X      Y      Z
   1   6     0.11  -0.11   0.01     0.21  -0.30   0.16     0.15   0.01  -0.01
   2   6     0.13   0.03  -0.00     0.04   0.10   0.22     0.11   0.07   0.06
   3   8    -0.10   0.03  -0.03    -0.01   0.24   0.17     0.00   0.09   0.11
   4   6    -0.07   0.06   0.09    -0.04   0.06  -0.50    -0.29  -0.27   0.03
   5   6    -0.15   0.04  -0.11    -0.16   0.06  -0.19    -0.21  -0.23  -0.03
   6   6    -0.11  -0.20  -0.31     0.04  -0.01   0.17     0.17   0.27   0.03
   7   8     0.02   0.09   0.20     0.05  -0.12   0.01    -0.17   0.12  -0.09
   8   8     0.24   0.15   0.21    -0.12   0.02   0.01     0.21  -0.10  -0.12
   9   1     0.04  -0.07   0.01    -0.05   0.08  -0.06     0.03  -0.12   0.03
  10   1     0.03  -0.08   0.02     0.18  -0.16  -0.05     0.04  -0.16   0.05
  11   1    -0.04   0.01  -0.01     0.17  -0.17  -0.01    -0.17   0.12  -0.03
  12   1    -0.01  -0.02   0.01    -0.03  -0.13  -0.25    -0.14   0.24   0.20
  13   1    -0.04   0.01   0.05    -0.04  -0.04   0.04     0.11   0.02  -0.29
  14   1    -0.07  -0.05   0.12     0.09  -0.02   0.03     0.20  -0.10   0.07
  15   1     0.02   0.14  -0.07    -0.20   0.15   0.07    -0.18   0.14   0.10
  16   1    -0.26  -0.43  -0.51    -0.10   0.06   0.01     0.18  -0.09  -0.01
                     16                     17                     18
                        a                      a                      a 
 Frequencies --   889.0365               959.3003              1001.0582
 Red. masses --     7.4380                 6.4917                 7.4412
 Frc consts  --     0.0000                 0.0000                 0.0000
 IR Inten    --    11.3136                16.7731                12.5942
 Raman Activ --     0.0000                 0.0000                 0.0000
 Depolar     --     0.0000                 0.0000                 0.0000
 Atom AN      X      Y      Z        X      Y      Z        X      Y      Z
   1   6     0.07   0.17  -0.10    -0.08  -0.24  -0.14     0.23  -0.24  -0.30
   2   6     0.00  -0.07   0.04    -0.05   0.09  -0.15    -0.37   0.08   0.10
   3   8     0.02  -0.03  -0.03    -0.07   0.02  -0.04     0.01   0.25   0.14
   4   6     0.03  -0.12   0.08     0.12   0.20   0.30    -0.10  -0.02  -0.12
   5   6    -0.07   0.33  -0.41    -0.15  -0.19  -0.26     0.21   0.02   0.14
   6   6     0.03  -0.10   0.23     0.12   0.16   0.22    -0.06  -0.08  -0.11
   7   8     0.10  -0.27   0.10    -0.03  -0.04  -0.05     0.02   0.02   0.01
   8   8    -0.16   0.01   0.06    -0.01  -0.03  -0.03    -0.03   0.02   0.03
   9   1     0.05  -0.16   0.05     0.19  -0.08   0.08     0.37  -0.41   0.18
  10   1    -0.04  -0.08   0.07    -0.15   0.28  -0.01    -0.17   0.11   0.10
  11   1    -0.25   0.21  -0.03     0.21  -0.16   0.10    -0.03   0.06   0.11
  12   1     0.31   0.03   0.21     0.04  -0.04   0.02     0.03  -0.00  -0.00
  13   1    -0.01   0.02  -0.14     0.23  -0.01   0.26    -0.02  -0.01  -0.03
  14   1     0.14   0.06  -0.06     0.12  -0.16   0.18     0.02   0.06  -0.11
  15   1    -0.01   0.20  -0.11    -0.04   0.27  -0.04     0.02  -0.15   0.05
  16   1    -0.23   0.14   0.02    -0.01  -0.00  -0.01     0.02  -0.01   0.01
                     19                     20                     21
                        a                      a                      a 
 Frequencies --  1014.0688              1076.2339              1115.3123
 Red. masses --     6.2241                 6.4628                 7.0324
 Frc consts  --     0.0000                 0.0000                 0.0000
 IR Inten    --    21.3347                 1.6165               203.9739
 Raman Activ --     0.0000                 0.0000                 0.0000
 Depolar     --     0.0000                 0.0000                 0.0000
 Atom AN      X      Y      Z        X      Y      Z        X      Y      Z
   1   6     0.13   0.22  -0.07     0.15   0.05   0.07    -0.09  -0.06  -0.01
   2   6    -0.15  -0.25   0.21    -0.15  -0.07   0.04     0.16   0.10  -0.05
   3   8     0.04  -0.06  -0.13     0.02  -0.03  -0.04    -0.02   0.06   0.08
   4   6     0.21   0.25  -0.12    -0.34   0.28   0.08    -0.15  -0.08  -0.02
   5   6    -0.14  -0.24   0.07     0.34  -0.21  -0.19     0.12  -0.09  -0.06
   6   6     0.06   0.12   0.03     0.07   0.07   0.11     0.31   0.04  -0.07
   7   8    -0.04   0.08  -0.07     0.02  -0.07   0.00     0.08  -0.14   0.04
   8   8    -0.02   0.02  -0.03    -0.08   0.00   0.02    -0.39   0.24   0.03
   9   1    -0.00  -0.14   0.02    -0.05  -0.02  -0.02     0.02   0.03   0.01
  10   1     0.00  -0.15   0.08     0.08  -0.17   0.03    -0.04   0.10  -0.02
  11   1    -0.27   0.24  -0.04    -0.11   0.08  -0.04     0.09  -0.08   0.02
  12   1     0.25  -0.20  -0.12    -0.34   0.03  -0.14     0.26  -0.02   0.14
  13   1    -0.08  -0.01   0.22    -0.17   0.05   0.09    -0.34   0.04  -0.19
  14   1    -0.20  -0.14   0.24     0.12  -0.09   0.03    -0.26  -0.10   0.21
  15   1    -0.17   0.03   0.12     0.40   0.10  -0.27     0.04   0.00  -0.02
  16   1     0.11  -0.07  -0.01    -0.02   0.00   0.00     0.31  -0.23  -0.01
                     22                     23                     24
                        a                      a                      a 
 Frequencies --  1131.3994              1161.6562              1171.9797
 Red. masses --     5.7008                 8.0906                 5.8026
 Frc consts  --     0.0000                 0.0000                 0.0000
 IR Inten    --   109.6165               107.6537                14.7603
 Raman Activ --     0.0000                 0.0000                 0.0000
 Depolar     --     0.0000                 0.0000                 0.0000
 Atom AN      X      Y      Z        X      Y      Z        X      Y      Z
   1   6    -0.03  -0.05  -0.04     0.22  -0.10   0.24    -0.07  -0.02   0.02
   2   6     0.01   0.06  -0.01    -0.46   0.30  -0.44     0.20   0.02  -0.01
   3   8     0.01   0.09   0.09     0.06  -0.08   0.03    -0.04  -0.01  -0.00
   4   6     0.09  -0.17  -0.16    -0.03  -0.01   0.08    -0.28   0.24   0.03
   5   6    -0.07  -0.03   0.05     0.03  -0.01   0.06     0.25  -0.24  -0.06
   6   6    -0.15   0.12   0.24    -0.05  -0.01   0.03    -0.16  -0.02  -0.01
   7   8    -0.10   0.14  -0.09     0.00   0.02  -0.01    -0.05   0.14  -0.06
   8   8     0.30  -0.21  -0.04     0.02   0.01  -0.02     0.16  -0.14   0.03
   9   1     0.04  -0.02   0.02    -0.09   0.05  -0.04    -0.01   0.05  -0.01
  10   1    -0.03   0.06  -0.01     0.24  -0.31  -0.03    -0.02   0.08  -0.02
  11   1     0.05  -0.03   0.02     0.01  -0.04  -0.07     0.04  -0.04   0.00
  12   1     0.13  -0.02   0.03     0.35  -0.02   0.18     0.41  -0.09   0.14
  13   1    -0.24   0.01  -0.19     0.14  -0.02   0.06    -0.34   0.07   0.01
  14   1    -0.37  -0.09   0.27    -0.04  -0.01   0.04     0.29  -0.04  -0.12
  15   1     0.36   0.08  -0.26     0.02  -0.03   0.01    -0.22  -0.09   0.19
  16   1    -0.25   0.18   0.00     0.05  -0.03  -0.00    -0.21   0.14   0.01
                     25                     26                     27
                        a                      a                      a 
 Frequencies --  1217.6578              1305.7090              1325.9982
 Red. masses --     6.7565                 5.6931                 6.6626
 Frc consts  --     0.0000                 0.0000                 0.0000
 IR Inten    --    57.2266                71.4362                67.8058
 Raman Activ --     0.0000                 0.0000                 0.0000
 Depolar     --     0.0000                 0.0000                 0.0000
 Atom AN      X      Y      Z        X      Y      Z        X      Y      Z
   1   6    -0.03   0.00  -0.02    -0.05   0.01  -0.02    -0.02  -0.01  -0.01
   2   6     0.07  -0.03   0.04     0.18  -0.07   0.12     0.11  -0.04   0.08
   3   8    -0.01   0.02   0.01    -0.02  -0.01  -0.03    -0.01  -0.02  -0.03
   4   6     0.01   0.06  -0.08    -0.37   0.06  -0.26    -0.30  -0.04  -0.07
   5   6    -0.14   0.00   0.05    -0.15  -0.04   0.26     0.41   0.18  -0.26
   6   6    -0.49  -0.06   0.33     0.21   0.03  -0.12    -0.28  -0.02   0.20
   7   8     0.11  -0.09   0.00    -0.02   0.00   0.01     0.03   0.01  -0.02
   8   8     0.16   0.13  -0.19    -0.07  -0.00   0.04     0.09  -0.01  -0.05
   9   1     0.00   0.00   0.00     0.01   0.04  -0.00     0.01   0.06  -0.01
  10   1    -0.02   0.04  -0.00    -0.03   0.05  -0.00    -0.02   0.04  -0.01
  11   1     0.00  -0.00   0.00    -0.02   0.02   0.02    -0.04   0.03   0.02
  12   1     0.14  -0.05   0.00     0.34  -0.06   0.10    -0.03   0.07   0.06
  13   1    -0.07   0.01  -0.01     0.48  -0.09   0.20     0.39  -0.07   0.13
  14   1     0.22   0.06  -0.17     0.05   0.05  -0.09    -0.36  -0.07   0.28
  15   1     0.18   0.07  -0.14     0.33   0.02  -0.21    -0.19  -0.12   0.15
  16   1     0.50  -0.30  -0.05    -0.07   0.05   0.01     0.09  -0.05  -0.01
                     28                     29                     30
                        a                      a                      a 
 Frequencies --  1359.6352              1413.9965              1433.6105
 Red. masses --     3.3579                 1.9194                 1.9774
 Frc consts  --     0.0000                 0.0000                 0.0000
 IR Inten    --    41.8242                26.7336                10.3249
 Raman Activ --     0.0000                 0.0000                 0.0000
 Depolar     --     0.0000                 0.0000                 0.0000
 Atom AN      X      Y      Z        X      Y      Z        X      Y      Z
   1   6     0.24  -0.38   0.04    -0.00  -0.00  -0.01    -0.01  -0.00   0.05
   2   6    -0.06   0.03  -0.03    -0.00   0.02   0.00    -0.01  -0.02   0.01
   3   8     0.01   0.01   0.02    -0.00  -0.02  -0.01     0.00   0.01   0.00
   4   6     0.04  -0.01   0.01     0.00  -0.03  -0.03    -0.11   0.09   0.24
   5   6    -0.02  -0.01   0.01     0.17  -0.21   0.08     0.05  -0.04   0.02
   6   6     0.02   0.01  -0.02    -0.03   0.01   0.01    -0.01  -0.01   0.01
   7   8    -0.00  -0.01   0.00     0.01  -0.02   0.01    -0.00   0.01  -0.01
   8   8    -0.01   0.00   0.00     0.02  -0.01  -0.00     0.01  -0.00  -0.00
   9   1    -0.10   0.47  -0.20     0.01   0.02   0.00     0.02  -0.06   0.03
  10   1    -0.11   0.43  -0.01     0.00  -0.02   0.00     0.07   0.08  -0.09
  11   1    -0.47   0.30   0.08     0.00   0.01   0.03    -0.05  -0.02  -0.14
  12   1    -0.00  -0.01  -0.01    -0.02   0.11   0.08     0.06  -0.53  -0.35
  13   1    -0.04   0.01  -0.02    -0.04  -0.04   0.11     0.29   0.18  -0.56
  14   1     0.02   0.00  -0.01    -0.42   0.21  -0.48    -0.10   0.04  -0.08
  15   1     0.01   0.01  -0.00    -0.09   0.64   0.11    -0.02   0.11   0.03
  16   1    -0.00   0.00   0.00    -0.01   0.01  -0.00    -0.00   0.00   0.00
                     31                     32                     33
                        a                      a                      a 
 Frequencies --  1448.7919              1455.3822              1775.8840
 Red. masses --     1.7432                 1.6507                13.3393
 Frc consts  --     0.0000                 0.0000                 0.0000
 IR Inten    --     9.7862                 7.8142               297.7107
 Raman Activ --     0.0000                 0.0000                 0.0000
 Depolar     --     0.0000                 0.0000                 0.0000
 Atom AN      X      Y      Z        X      Y      Z        X      Y      Z
   1   6    -0.20  -0.03  -0.14     0.15   0.03  -0.17     0.03  -0.05  -0.02
   2   6    -0.01   0.01   0.03     0.01   0.02  -0.04    -0.05   0.63   0.47
   3   8     0.01  -0.04  -0.04     0.00   0.00   0.00     0.03  -0.48  -0.37
   4   6     0.00   0.02   0.03    -0.03   0.01   0.06    -0.00  -0.03  -0.02
   5   6    -0.01  -0.00  -0.00     0.01  -0.00   0.00    -0.00   0.01   0.00
   6   6     0.00  -0.00   0.00    -0.00  -0.00   0.00     0.00  -0.01   0.01
   7   8    -0.00   0.00  -0.00    -0.00   0.00  -0.00    -0.00   0.01  -0.01
   8   8     0.00   0.00  -0.00     0.00  -0.00  -0.00     0.00  -0.00  -0.00
   9   1     0.47   0.41   0.14    -0.36   0.08  -0.23    -0.00  -0.05   0.01
  10   1     0.20  -0.36  -0.12    -0.43  -0.25   0.50    -0.03   0.05   0.02
  11   1     0.01   0.19   0.54     0.24   0.01   0.40     0.02  -0.02  -0.02
  12   1    -0.00  -0.06  -0.04     0.03  -0.11  -0.06    -0.01  -0.00  -0.00
  13   1    -0.01   0.03  -0.08     0.06   0.04  -0.12    -0.03   0.02  -0.05
  14   1     0.02  -0.00   0.01    -0.01   0.00  -0.01     0.01  -0.00   0.01
  15   1     0.00  -0.01  -0.00    -0.01   0.02   0.01     0.01  -0.01  -0.01
  16   1     0.00  -0.00   0.00     0.00   0.00   0.00     0.00   0.00   0.00
                     34                     35                     36
                        a                      a                      a 
 Frequencies --  1791.8291              2974.5175              2979.9730
 Red. masses --    13.2550                 1.7675                 1.9625
 Frc consts  --     0.0000                 0.0000                 0.0000
 IR Inten    --   444.8178                12.0522                 3.6111
 Raman Activ --     0.0000                 0.0000                 0.0000
 Depolar     --     0.0000                 0.0000                 0.0000
 Atom AN      X      Y      Z        X      Y      Z        X      Y      Z
   1   6     0.00  -0.00   0.00     0.00   0.00  -0.00    -0.00  -0.00   0.00
   2   6    -0.00   0.02  -0.00    -0.00  -0.00   0.01     0.00   0.00   0.00
   3   8     0.00  -0.01  -0.00     0.00  -0.00  -0.00    -0.00   0.00   0.00
   4   6     0.00   0.00  -0.00    -0.10  -0.16   0.18     0.00   0.03  -0.00
   5   6    -0.01  -0.05   0.04    -0.02   0.01  -0.02    -0.10  -0.18  -0.20
   6   6    -0.30   0.66  -0.32    -0.00   0.00  -0.00    -0.00  -0.01  -0.00
   7   8     0.24  -0.49   0.23     0.00   0.00  -0.00    -0.00   0.00  -0.00
   8   8     0.05  -0.05   0.01    -0.00   0.00   0.00     0.00   0.00   0.00
   9   1    -0.00  -0.00  -0.00    -0.01   0.00   0.01    -0.00  -0.00   0.00
  10   1     0.00  -0.00   0.00     0.00   0.00  -0.00    -0.00   0.00   0.00
  11   1     0.01  -0.01   0.00    -0.01  -0.01   0.00     0.00   0.01  -0.00
  12   1     0.02  -0.01  -0.00     0.35   0.54  -0.70    -0.01  -0.01   0.03
  13   1     0.01   0.01  -0.01    -0.01   0.04   0.05    -0.00  -0.12  -0.04
  14   1    -0.01  -0.01   0.04    -0.01  -0.05  -0.02     0.03   0.71   0.28
  15   1    -0.02  -0.03   0.01     0.08  -0.00   0.11     0.33  -0.04   0.44
  16   1    -0.08   0.06   0.01     0.00  -0.00  -0.00    -0.00  -0.00   0.00
                     37                     38                     39
                        a                      a                      a 
 Frequencies --  2991.8056              3014.6541              3021.4304
 Red. masses --     1.5151                 1.7200                 1.7895
 Frc consts  --     0.0000                 0.0000                 0.0000
 IR Inten    --    12.8172                13.7694                 2.3172
 Raman Activ --     0.0000                 0.0000                 0.0000
 Depolar     --     0.0000                 0.0000                 0.0000
 Atom AN      X      Y      Z        X      Y      Z        X      Y      Z
   1   6    -0.00  -0.00   0.00     0.03   0.05  -0.00    -0.15  -0.18   0.11
   2   6    -0.00   0.00  -0.00    -0.00  -0.01  -0.00    -0.00  -0.01   0.00
   3   8     0.00  -0.00   0.00    -0.00   0.00   0.00    -0.00   0.00   0.00
   4   6     0.01   0.01  -0.03    -0.00  -0.23  -0.08    -0.00  -0.05  -0.02
   5   6    -0.11   0.14  -0.11    -0.00  -0.04  -0.02     0.00  -0.01  -0.00
   6   6    -0.00   0.01  -0.01     0.00  -0.00   0.00     0.00  -0.00   0.00
   7   8     0.00  -0.00   0.00    -0.00   0.00  -0.00    -0.00   0.00  -0.00
   8   8    -0.00  -0.00   0.00    -0.00   0.00   0.00    -0.00   0.00   0.00
   9   1     0.00  -0.00  -0.00     0.02  -0.00  -0.04     0.06  -0.06  -0.13
  10   1    -0.00  -0.00  -0.00    -0.01   0.00  -0.02    -0.03  -0.03   0.01
  11   1     0.00   0.01  -0.00    -0.12  -0.18   0.07     0.48   0.74  -0.27
  12   1    -0.05  -0.08   0.11    -0.03  -0.07   0.04     0.00  -0.00  -0.01
  13   1     0.00   0.06   0.01     0.04   0.89   0.26     0.01   0.20   0.06
  14   1    -0.05  -0.52  -0.24     0.01   0.12   0.05     0.00   0.03   0.01
  15   1     0.46  -0.00   0.63     0.01  -0.01   0.01    -0.00  -0.00  -0.00
  16   1     0.00   0.00  -0.00     0.00   0.00  -0.00     0.00   0.00  -0.00
                     40                     41                     42
                        a                      a                      a 
 Frequencies --  3035.8557              3059.2778              3448.0266
 Red. masses --     1.5433                 1.8332                 1.8473
 Frc consts  --     0.0000                 0.0000                 0.0000
 IR Inten    --    11.1051                15.7997                32.7607
 Raman Activ --     0.0000                 0.0000                 0.0000
 Depolar     --     0.0000                 0.0000                 0.0000
 Atom AN      X      Y      Z        X      Y      Z        X      Y      Z
   1   6     0.12  -0.07  -0.17    -0.15  -0.08  -0.21    -0.00  -0.00  -0.00
   2   6     0.00  -0.01  -0.01    -0.01  -0.00  -0.01     0.00  -0.00  -0.00
   3   8    -0.00   0.00   0.00     0.00   0.00   0.00    -0.00   0.00   0.00
   4   6     0.00  -0.02  -0.01     0.00  -0.01  -0.00     0.00   0.00  -0.00
   5   6    -0.00  -0.00  -0.00    -0.00  -0.00  -0.00     0.00  -0.00   0.00
   6   6    -0.00  -0.00  -0.00     0.00   0.00  -0.00     0.01   0.00  -0.01
   7   8    -0.00   0.00   0.00    -0.00   0.00   0.00    -0.00   0.00  -0.00
   8   8    -0.00  -0.00   0.00    -0.00   0.00   0.00     0.09   0.14  -0.17
   9   1    -0.41   0.20   0.82    -0.10   0.03   0.14    -0.00   0.00   0.00
  10   1    -0.12  -0.05  -0.16     0.64   0.22   0.65     0.00  -0.00   0.00
  11   1     0.09   0.11  -0.07     0.00   0.02  -0.04     0.00   0.00  -0.00
  12   1    -0.01  -0.01   0.01    -0.00  -0.00   0.00     0.00  -0.00   0.00
  13   1     0.00   0.07   0.02     0.00   0.04   0.01     0.00   0.00   0.00
  14   1     0.00   0.01   0.00    -0.00   0.00   0.00    -0.00  -0.00  -0.00
  15   1    -0.00  -0.00  -0.00     0.00  -0.00   0.00     0.00   0.00   0.00
  16   1    -0.00   0.00  -0.00    -0.00  -0.00  -0.00    -0.39  -0.57   0.68
