16
 energy: -26.986926703697 gnorm: 0.000219223223 xtb: 6.7.1pre (5071a88)
C           -2.19351081546339        0.75449838146131       -0.46684824476835
C           -1.22254002086649       -0.37677022575403       -0.28972630753280
O           -1.16231254648050       -1.32341939637507       -1.03147307121301
C           -0.29757958590443       -0.23766281118145        0.91180430407410
C            1.09919317035171       -0.73627959720862        0.55455310643844
C            1.72289585618339        0.16021167313388       -0.48570526429913
O            1.21908331760218        1.14970384223998       -0.94564678096992
O            2.93502294577030       -0.27029970399490       -0.85078479226681
H           -2.67957769839915        0.99552112510932        0.47528467041982
H           -2.93439408285962        0.50930238833830       -1.22276169125431
H           -1.62469886852010        1.62465342643381       -0.79165053707250
H           -0.70954305252025       -0.84546152332256        1.72054581100466
H           -0.26001703481470        0.80142056136861        1.23651542544886
H            1.04121522944017       -1.74186297974512        0.13217651172435
H            1.75611026708871       -0.77129003569950        1.42486667806050
H            3.31065391939230        0.30773387519631       -1.53356081779396
