      -----------------------------------------------------------      
     |                   =====================                   |     
     |                           x T B                           |     
     |                   =====================                   |     
     |                         S. Grimme                         |     
     |          Mulliken Center for Theoretical Chemistry        |     
     |                    University of Bonn                     |     
      -----------------------------------------------------------      

   * xtb version 6.7.1pre (5071a88) compiled by 'Marcel@Raven' on 2024-07-23

   xtb is free software: you can redistribute it and/or modify it under
   the terms of the GNU Lesser General Public License as published by
   the Free Software Foundation, either version 3 of the License, or
   (at your option) any later version.
   
   xtb is distributed in the hope that it will be useful,
   but WITHOUT ANY WARRANTY; without even the implied warranty of
   MERCHANTABILITY or FITNESS FOR A PARTICULAR PURPOSE.  See the
   GNU Lesser General Public License for more details.
   
   Cite this work as:
   * C. Bannwarth, E. Caldeweyher, S. Ehlert, A. Hansen, P. Pracht,
     J. Seibert, S. Spicher, S. Grimme, WIREs Comput. Mol. Sci., 2020, 11,
     e01493. DOI: 10.1002/wcms.1493
   
   for GFN2-xTB:
   * C. Bannwarth, S. Ehlert and S. Grimme., J. Chem. Theory Comput., 2019,
     15, 1652-1671. DOI: 10.1021/acs.jctc.8b01176
   for GFN1-xTB:
   * S. Grimme, C. Bannwarth, P. Shushkov, J. Chem. Theory Comput., 2017,
     13, 1989-2009. DOI: 10.1021/acs.jctc.7b00118
   for GFN0-xTB:
   * P. Pracht, E. Caldeweyher, S. Ehlert, S. Grimme, ChemRxiv, 2019, preprint.
     DOI: 10.26434/chemrxiv.8326202.v1
   for GFN-FF:
   * S. Spicher and S. Grimme, Angew. Chem. Int. Ed., 2020, 59, 15665-15673.
     DOI: 10.1002/anie.202004239
   
   for ALPB and GBSA implicit solvation:
   * S. Ehlert, M. Stahn, S. Spicher, S. Grimme, J. Chem. Theory Comput.,
     2021, 17, 4250-4261. DOI: 10.1021/acs.jctc.1c00471
   
   for ddCOSMO and CPCM-X implicit solvation:
   * M. Stahn, S. Ehlert, S. Grimme, J. Phys. Chem. A,
     2023, XX, XXXX-XXXX. DOI: 10.1021/acs.jpca.3c04382
   
   for DFT-D4:
   * E. Caldeweyher, C. Bannwarth and S. Grimme, J. Chem. Phys., 2017,
     147, 034112. DOI: 10.1063/1.4993215
   * E. Caldeweyher, S. Ehlert, A. Hansen, H. Neugebauer, S. Spicher,
     C. Bannwarth and S. Grimme, J. Chem. Phys., 2019, 150, 154122.
     DOI: 10.1063/1.5090222
   * E. Caldeweyher, J.-M. Mewes, S. Ehlert and S. Grimme, Phys. Chem. Chem. Phys.
     2020, 22, 8499-8512. DOI: 10.1039/D0CP00502A
   
   for sTDA-xTB:
   * S. Grimme and C. Bannwarth, J. Chem. Phys., 2016, 145, 054103.
     DOI: 10.1063/1.4959605
   
   in the mass-spec context:
   * V. Asgeirsson, C. Bauer and S. Grimme, Chem. Sci., 2017, 8, 4879.
     DOI: 10.1039/c7sc00601b
   * J. Koopman and S. Grimme, ACS Omega 2019, 4, 12, 15120-15133.
     DOI: 10.1021/acsomega.9b02011
   
   for metadynamics refer to:
   * S. Grimme, J. Chem. Theory Comput., 2019, 155, 2847-2862
     DOI: 10.1021/acs.jctc.9b00143
   
   for SPH calculations refer to:
   * S. Spicher and S. Grimme, J. Chem. Theory Comput., 2021, 17, 1701-1714
     DOI: 10.1021/acs.jctc.0c01306
   
   for ONIOM refer to:
   * C. Plett, A. Katbashev, S. Ehlert, S. Grimme, M. Bursch,
     Phys. Chem. Chem. Phys., 2023, 25, 17860-17868. DOI: 10.1039/D3CP02178E
   
   for DIPRO refer to:
   * J. Kohn, N. Gildemeister, S. Grimme, D. Fazzi, A. Hansen,
     J. Chem. Phys., 2023, just accepted.
   
   for PTB refer to:
   * S. Grimme, M. Mueller, A. Hansen, J. Chem. Phys., 2023, 158, 124111.
     DOI: 10.1063/5.0137838
   
   with help from (in alphabetical order)
   P. Atkinson, C. Bannwarth, F. Bohle, G. Brandenburg, E. Caldeweyher
   M. Checinski, S. Dohm, S. Ehlert, S. Ehrlich, I. Gerasimov, C. Hölzer
   A. Katbashev, J. Kohn, J. Koopman, C. Lavigne, S. Lehtola, F. März, M. Müller,
   F. Musil, H. Neugebauer, J. Pisarek, C. Plett, P. Pracht, F. Pultar,
   J. Seibert, P. Shushkov, S. Spicher, M. Stahn, M. Steiner, T. Strunk,
   J. Stückrath, T. Rose, and J. Unsleber
   
 * started run on 2026/09/17 at 00:40:21.609     
   ID    Z sym.   atoms
    1    6 C      1, 2, 4-6
    2    8 O      3, 7, 8
    3    1 H      9-16

           -------------------------------------------------
          |                Calculation Setup                |
           -------------------------------------------------

          program call               : C:\ORCA_6.1.1\xtb-6.7.1pre\xtb.exe optimized.xyz --gfn 2 --chrg 0 --uhf 0 --hess --json
          coordinate file            : optimized.xyz
          omp threads                :                     4


           -------------------------------------------------
          |                 G F N 2 - x T B                 |
           -------------------------------------------------

        Reference                      10.1021/acs.jctc.8b01176
      * Hamiltonian:
        H0-scaling (s, p, d)           1.850000    2.230000    2.230000
        zeta-weighting                 0.500000
      * Dispersion:
        s8                             2.700000
        a1                             0.520000
        a2                             5.000000
        s9                             5.000000
      * Repulsion:
        kExp                           1.500000    1.000000
        rExp                           1.000000
      * Coulomb:
        alpha                          2.000000
        third order                    shell-resolved
        anisotropic                    true
        a3                             3.000000
        a5                             4.000000
        cn-shift                       1.200000
        cn-exp                         4.000000
        max-rad                        5.000000


          ...................................................
          :                      SETUP                      :
          :.................................................:
          :  # basis functions                  40          :
          :  # atomic orbitals                  40          :
          :  # shells                           24          :
          :  # electrons                        46          :
          :  max. iterations                   250          :
          :  Hamiltonian                  GFN2-xTB          :
          :  restarted?                      false          :
          :  GBSA solvation                  false          :
          :  PC potential                    false          :
          :  electronic temp.          300.0000000     K    :
          :  accuracy                    1.0000000          :
          :  -> integral cutoff          0.2500000E+02      :
          :  -> integral neglect         0.1000000E-07      :
          :  -> SCF convergence          0.1000000E-05 Eh   :
          :  -> wf. convergence          0.1000000E-03 e    :
          :  Broyden damping             0.4000000          :
          :  net charge                          0          :
          :  unpaired electrons                  0          :
          ...................................................

 iter      E             dE          RMSdq      gap      omega  full diag
   1    -27.1974867 -0.271975E+02  0.439E+00    4.81       0.0  T
   2    -27.2595470 -0.620603E-01  0.220E+00    3.86       1.0  T
   3    -27.2656788 -0.613185E-02  0.139E+00    4.31       1.0  T
   4    -27.2700071 -0.432828E-02  0.166E-01    4.04       1.0  T
   5    -27.2702392 -0.232114E-03  0.828E-02    4.10       1.0  T
   6    -27.2702501 -0.109156E-04  0.348E-02    4.09       1.0  T
   7    -27.2702555 -0.532178E-05  0.100E-02    4.09       2.5  T
   8    -27.2702562 -0.719395E-06  0.311E-03    4.09       8.0  T
   9    -27.2702562 -0.629748E-08  0.146E-03    4.09      17.1  T
  10    -27.2702562 -0.110131E-07  0.376E-04    4.09      66.5  T
  11    -27.2702562 -0.197645E-09  0.173E-04    4.09     144.4  T

   *** convergence criteria satisfied after 11 iterations ***

         #    Occupation            Energy/Eh            Energy/eV
      -------------------------------------------------------------
         1        2.0000           -0.7510067             -20.4359
       ...           ...                  ...                  ...
        17        2.0000           -0.4842951             -13.1783
        18        2.0000           -0.4816248             -13.1057
        19        2.0000           -0.4738900             -12.8952
        20        2.0000           -0.4670482             -12.7090
        21        2.0000           -0.4628704             -12.5953
        22        2.0000           -0.4289717             -11.6729
        23        2.0000           -0.3969002             -10.8002 (HOMO)
        24                         -0.2465182              -6.7081 (LUMO)
        25                         -0.2379683              -6.4754
        26                          0.0411762               1.1205
        27                          0.0675086               1.8370
        28                          0.1128258               3.0701
       ...                                ...                  ...
        40                          0.6420139              17.4701
      -------------------------------------------------------------
                  HL-Gap            0.1503820 Eh            4.0921 eV
             Fermi-level           -0.3217092 Eh           -8.7542 eV

 SCC (total)                   0 d,  0 h,  0 min,  0.005 sec
 SCC setup                      ...        0 min,  0.000 sec (  0.000%)
 Dispersion                     ...        0 min,  0.001 sec ( 20.003%)
 classical contributions        ...        0 min,  0.000 sec (  0.000%)
 integral evaluation            ...        0 min,  0.000 sec (  0.000%)
 iterations                     ...        0 min,  0.003 sec ( 59.999%)
 molecular gradient             ...        0 min,  0.001 sec ( 19.998%)
 printout                       ...        0 min,  0.000 sec (  0.000%)

         :::::::::::::::::::::::::::::::::::::::::::::::::::::
         ::                     SUMMARY                     ::
         :::::::::::::::::::::::::::::::::::::::::::::::::::::
         :: total energy             -26.986926703662 Eh    ::
         :: gradient norm              0.000217786851 Eh/a0 ::
         :: HOMO-LUMO gap              4.092102143249 eV    ::
         ::.................................................::
         :: SCC energy               -27.270230623215 Eh    ::
         :: -> isotropic ES            0.075471546714 Eh    ::
         :: -> anisotropic ES          0.000300987541 Eh    ::
         :: -> anisotropic XC          0.003896751277 Eh    ::
         :: -> dispersion             -0.010069657548 Eh    ::
         :: repulsion energy           0.283303919553 Eh    ::
         :: add. restraining           0.000000000000 Eh    ::
         :: total charge              -0.000000000000 e     ::
         :::::::::::::::::::::::::::::::::::::::::::::::::::::

           ------------------------------------------------- 
          |                Numerical Hessian                |
           ------------------------------------------------- 
step length          :   0.00500
SCC accuracy         :   0.30000
Hessian scale factor :   1.00000
frozen atoms in %    :   0.00000    0
RMS gradient         :   0.00022
estimated CPU  time      0.04 min
estimated wall time      0.01 min

writing file <hessian>.

 projected vibrational frequencies (cm⁻¹)
eigval :       -0.00    -0.00    -0.00     0.00     0.00     0.00
eigval :       32.20    45.89    57.86   165.03   202.02   259.08
eigval :      353.28   454.50   487.39   500.37   575.83   626.52
eigval :      658.36   800.69   812.24   889.04   959.30  1001.06
eigval :     1014.07  1076.23  1115.31  1131.40  1161.66  1171.98
eigval :     1217.66  1305.71  1326.00  1359.64  1414.00  1433.61
eigval :     1448.79  1455.38  1775.88  1791.83  2974.52  2979.97
eigval :     2991.81  3014.65  3021.43  3035.86  3059.28  3448.03
           -------------------------------------------------
          |                Property Printout                |
           -------------------------------------------------

    * Orbital Energies and Occupations

         #    Occupation            Energy/Eh            Energy/eV
      -------------------------------------------------------------
         1        2.0000           -0.7510062             -20.4359
       ...           ...                  ...                  ...
        11        2.0000           -0.5649680             -15.3736
        12        2.0000           -0.5431695             -14.7804
        13        2.0000           -0.5419333             -14.7468
        14        2.0000           -0.5193243             -14.1315
        15        2.0000           -0.5052151             -13.7476
        16        2.0000           -0.4942021             -13.4479
        17        2.0000           -0.4842953             -13.1783
        18        2.0000           -0.4816240             -13.1057
        19        2.0000           -0.4738904             -12.8952
        20        2.0000           -0.4670484             -12.7090
        21        2.0000           -0.4628711             -12.5954
        22        2.0000           -0.4289715             -11.6729
        23        2.0000           -0.3969012             -10.8002 (HOMO)
        24                         -0.2465193              -6.7081 (LUMO)
        25                         -0.2379681              -6.4754
        26                          0.0411772               1.1205
        27                          0.0675080               1.8370
        28                          0.1128250               3.0701
        29                          0.1372028               3.7335
        30                          0.1414621               3.8494
        31                          0.1536022               4.1797
        32                          0.1714268               4.6648
        33                          0.1862594               5.0684
        34                          0.2125791               5.7846
       ...                                ...                  ...
        40                          0.6420136              17.4701
      -------------------------------------------------------------
                  HL-Gap            0.1503819 Eh            4.0921 eV
             Fermi-level           -0.3217102 Eh           -8.7542 eV

     #   Z          covCN         q      C6AA      α(0)
     1   6 C        3.754    -0.144    23.327     6.887
     2   6 C        2.812     0.249    22.827     7.828
     3   8 O        0.857    -0.359    20.881     6.127
     4   6 C        3.806    -0.087    22.156     6.701
     5   6 C        3.806    -0.086    22.142     6.699
     6   6 C        2.691     0.365    20.809     7.466
     7   8 O        0.856    -0.413    21.948     6.281
     8   8 O        1.660    -0.376    20.398     6.097
     9   1 H        0.925     0.062     2.180     2.309
    10   1 H        0.925     0.069     2.093     2.262
    11   1 H        0.925     0.089     1.892     2.151
    12   1 H        0.924     0.068     2.103     2.268
    13   1 H        0.925     0.064     2.154     2.295
    14   1 H        0.924     0.095     1.831     2.116
    15   1 H        0.924     0.073     2.051     2.240
    16   1 H        0.804     0.332     0.633     1.250

 Mol. C6AA /au·bohr⁶  :       2304.103773
 Mol. C8AA /au·bohr⁸  :      50883.842240
 Mol. α(0) /au        :         70.974924


Wiberg/Mayer (AO) data.
largest (>0.10) Wiberg bond orders for each atom

 ---------------------------------------------------------------------------
     #   Z sym  total        # sym  WBO       # sym  WBO       # sym  WBO
 ---------------------------------------------------------------------------
     1   6 C    3.994 --     2 C    1.013    10 H    0.982     9 H    0.967
                            11 H    0.948
     2   6 C    3.917 --     3 O    1.869     1 C    1.013     4 C    0.977
     3   8 O    2.075 --     2 C    1.869
     4   6 C    3.996 --     5 C    1.003     2 C    0.977    13 H    0.972
                            12 H    0.949
     5   6 C    3.994 --     4 C    1.003     6 C    0.980    15 H    0.953
                            14 H    0.947
     6   6 C    3.912 --     7 O    1.763     8 O    1.135     5 C    0.980
     7   8 O    2.036 --     6 C    1.763     8 O    0.171
     8   8 O    2.199 --     6 C    1.135    16 H    0.865     7 O    0.171
     9   1 H    0.996 --     1 C    0.967
    10   1 H    0.995 --     1 C    0.982
    11   1 H    0.992 --     1 C    0.948
    12   1 H    0.995 --     4 C    0.949
    13   1 H    0.996 --     4 C    0.972
    14   1 H    0.991 --     5 C    0.947
    15   1 H    0.994 --     5 C    0.953
    16   1 H    0.890 --     8 O    0.865
 ---------------------------------------------------------------------------

Topologies differ in total number of bonds
Writing topology from bond orders to xtbtopo.mol

molecular dipole:
                 x           y           z       tot (Debye)
 q only:        0.239       0.296       0.853
   full:        0.369       0.436       0.919       2.749
molecular quadrupole (traceless):
                xx          xy          yy          xz          yz          zz
 q only:        5.968      -3.880      -5.344      -3.828      -2.395      -0.623
  q+dip:        6.047      -2.688      -6.370      -4.949      -3.029       0.323
   full:        6.520      -2.357      -6.822      -5.315      -3.006       0.302

           -------------------------------------------------
          |               Frequency Printout                |
           -------------------------------------------------
 projected vibrational frequencies (cm⁻¹)
eigval :       -0.00    -0.00    -0.00     0.00     0.00     0.00
eigval :       32.20    45.89    57.86   165.03   202.02   259.08
eigval :      353.28   454.50   487.39   500.37   575.83   626.52
eigval :      658.36   800.69   812.24   889.04   959.30  1001.06
eigval :     1014.07  1076.23  1115.31  1131.40  1161.66  1171.98
eigval :     1217.66  1305.71  1326.00  1359.64  1414.00  1433.61
eigval :     1448.79  1455.38  1775.88  1791.83  2974.52  2979.97
eigval :     2991.81  3014.65  3021.43  3035.86  3059.28  3448.03
 reduced masses (amu)
   1: 13.82   2: 12.32   3: 10.56   4: 12.84   5: 12.86   6: 13.52   7: 11.76   8: 14.69
   9: 12.60  10:  1.89  11:  9.15  12: 11.62  13:  9.25  14: 11.08  15:  9.05  16:  6.62
  17: 11.46  18:  9.36  19:  6.37  20:  9.06  21:  7.44  22:  7.44  23:  6.49  24:  7.44
  25:  6.22  26:  6.46  27:  7.03  28:  5.70  29:  8.09  30:  5.80  31:  6.76  32:  5.69
  33:  6.66  34:  3.36  35:  1.92  36:  1.98  37:  1.74  38:  1.65  39: 13.34  40: 13.26
  41:  1.77  42:  1.96  43:  1.52  44:  1.72  45:  1.79  46:  1.54  47:  1.83  48:  1.85
 IR intensities (km·mol⁻¹)
   1:  0.24   2:  0.44   3:  0.93   4:  0.87   5:  0.09   6:  0.55   7:  7.66   8:  2.67
   9:  0.18  10:  1.71  11:  4.12  12:  5.77  13:  1.42  14: 21.67  15: 13.63  16: 14.35
  17: 19.94  18: 38.32  19:142.44  20: 16.50  21: 23.13  22: 11.31  23: 16.77  24: 12.59
  25: 21.33  26:  1.62  27:203.97  28:109.62  29:107.65  30: 14.76  31: 57.23  32: 71.44
  33: 67.81  34: 41.82  35: 26.73  36: 10.32  37:  9.79  38:  7.81  39:297.71  40:444.82
  41: 12.05  42:  3.61  43: 12.82  44: 13.77  45:  2.32  46: 11.11  47: 15.80  48: 32.76
 Raman intensities (Ä⁴*amu⁻¹)
   1:  0.00   2:  0.00   3:  0.00   4:  0.00   5:  0.00   6:  0.00   7:  0.00   8:  0.00
   9:  0.00  10:  0.00  11:  0.00  12:  0.00  13:  0.00  14:  0.00  15:  0.00  16:  0.00
  17:  0.00  18:  0.00  19:  0.00  20:  0.00  21:  0.00  22:  0.00  23:  0.00  24:  0.00
  25:  0.00  26:  0.00  27:  0.00  28:  0.00  29:  0.00  30:  0.00  31:  0.00  32:  0.00
  33:  0.00  34:  0.00  35:  0.00  36:  0.00  37:  0.00  38:  0.00  39:  0.00  40:  0.00
  41:  0.00  42:  0.00  43:  0.00  44:  0.00  45:  0.00  46:  0.00  47:  0.00  48:  0.00
 output can be read by thermo (or use thermo option).
 writing <g98.out> molden fake output.
 recommended (thermochemical) frequency scaling factor: 1.0
           -------------------------------------------------
          |             Thermodynamic Functions             |
           -------------------------------------------------

Molecule has no symmetry elements
It seems to be the C1 point group
c1  symmetry found (for desy threshold:  0.10E+00) used in thermo

          ...................................................
          :                      SETUP                      :
          :.................................................:
          :  # frequencies                          42      :
          :  # imaginary freq.                       0      :
          :  linear?                             false      :
          :  only rotor calc.                    false      :
          :  symmetry                               c1      :
          :  rotational number                       1      :
          :  scaling factor                  1.0000000      :
          :  rotor cutoff                   50.0000000 cm⁻¹ :
          :  imag. cutoff                  -20.0000000 cm⁻¹ :
          :.................................................:

    mode    ω/cm⁻¹     T·S(HO)/kcal·mol⁻¹    T·S(FR)/kcal·mol⁻¹   T·S(vib)
   ------------------------------------------------------------------------
       1     32.20    -1.69618 ( 14.68%)    -1.18641 ( 85.32%)    -1.26123
       2     45.89    -1.48694 ( 41.50%)    -1.08163 ( 58.50%)    -1.24983
       3     57.86    -1.35026 ( 64.20%)    -1.01301 ( 35.80%)    -1.22953
       4    165.03    -0.74279 ( 99.16%)    -0.70271 (  0.84%)    -0.74246
       5    202.02    -0.63048 ( 99.63%)    -0.64282 (  0.37%)    -0.63052
       6    259.08    -0.49731 ( 99.86%)    -0.56914 (  0.14%)    -0.49741
   ------------------------------------------------------------------------

   temp. (K)  partition function   enthalpy   heat capacity  entropy
                                   cal/mol     cal/K/mol   cal/K/mol   J/K/mol
 298.15  VIB  0.129E+04             3902.124     23.299     24.659
         ROT  0.353E+06              888.752      2.981     28.369
         INT  0.455E+09             4790.877     26.280     53.028
         TR   0.121E+28             1481.254      4.968     40.145
         TOT                        6272.1304    31.2482    93.1730   389.8358

       T/K    H(0)-H(T)+PV         H(T)/Eh          T*S/Eh         G(T)/Eh
   ------------------------------------------------------------------------
    298.15    0.999528E-02    0.134395E+00    0.442695E-01    0.901259E-01
   ------------------------------------------------------------------------

         :::::::::::::::::::::::::::::::::::::::::::::::::::::
         ::                  THERMODYNAMIC                  ::
         :::::::::::::::::::::::::::::::::::::::::::::::::::::
         :: total free energy         -26.896800826263 Eh   ::
         ::.................................................::
         :: total energy              -26.986926703699 Eh   ::
         :: zero point energy           0.124400094553 Eh   ::
         :: G(RRHO) w/o ZPVE           -0.034274217117 Eh   ::
         :: G(RRHO) contrib.            0.090125877436 Eh   ::
         :::::::::::::::::::::::::::::::::::::::::::::::::::::

           -------------------------------------------------
          | TOTAL ENERGY              -26.986926703699 Eh   |
          | TOTAL ENTHALPY            -26.852531333052 Eh   |
          | TOTAL FREE ENERGY         -26.896800826263 Eh   |
          | GRADIENT NORM               0.000218962990 Eh/α |
          | HOMO-LUMO GAP               4.092098607876 eV   |
           -------------------------------------------------

------------------------------------------------------------------------
 * finished run on 2026/09/17 at 00:40:21.796     
------------------------------------------------------------------------
 total:
 * wall-time:     0 d,  0 h,  0 min,  0.184 sec
 *  cpu-time:     0 d,  0 h,  0 min,  0.672 sec
 * ratio c/w:     3.651 speedup
 SCF:
 * wall-time:     0 d,  0 h,  0 min,  0.006 sec
 *  cpu-time:     0 d,  0 h,  0 min,  0.047 sec
 * ratio c/w:     7.812 speedup
 analytical hessian:
 * wall-time:     0 d,  0 h,  0 min,  0.154 sec
 *  cpu-time:     0 d,  0 h,  0 min,  0.562 sec
 * ratio c/w:     3.653 speedup

