13

C     -1.639623   -0.177389    0.103844
C     -1.143732    1.074574   -0.261866
C      0.232633    1.275658   -0.363593
C      1.103046    0.224151   -0.099103
C      0.618921   -1.028796    0.266491
C     -0.759059   -1.227960    0.367738
O      2.440961    0.463679   -0.210279
H     -2.712366   -0.334015    0.183105
H     -1.827875    1.893356   -0.467605
H      0.625017    2.247685   -0.647772
H      1.291719   -1.854302    0.474487
H     -1.148201   -2.202084    0.652400
H      2.918557   -0.354558    0.002153
