15

C     -0.557027   -1.197548   -0.698559
C     -0.772997   -0.223703    0.252096
O      0.369363    0.494581    0.452240
C      1.327050   -0.020645   -0.375288
C      0.795286   -1.068593   -1.101713
C      2.643189    0.564308   -0.366445
O      3.008991    1.507771    0.330288
C     -1.948872    0.184169    1.053335
O     -2.270582    1.521300    0.692856
H     -1.288548   -1.907751   -1.059659
H      1.316060   -1.665896   -1.837583
H      3.358708    0.094228   -1.062543
H     -1.730501    0.147048    2.124598
H     -2.815691   -0.449782    0.847221
H     -1.434432    2.020512    0.749156
