24

C      2.309631    0.075945    0.308352
C      1.035600   -0.012777   -0.541227
C     -0.035446    0.975503   -0.042011
C     -1.386605    0.518974   -0.572394
C     -1.742542   -0.843357    0.025320
C     -0.487463   -1.731105    0.202373
O      0.587038   -1.370253   -0.659153
O     -0.025720   -1.676095    1.546678
O     -2.708767   -1.473666   -0.834845
O     -2.410614    1.469953   -0.242268
O      0.227857    2.309446   -0.499725
O      2.791209    1.419948    0.339729
H      2.128474   -0.252045    1.336411
H      3.087756   -0.570992   -0.111089
H      1.320806    0.294984   -1.556214
H     -0.066807    1.023452    1.053415
H     -1.371576    0.475216   -1.668797
H     -2.244522   -0.721303    0.992981
H     -0.749113   -2.772220   -0.018581
H      0.363841   -2.550715    1.718306
H     -3.423027   -0.815535   -0.943417
H     -1.995664    2.342449   -0.407000
H      1.165223    2.483950   -0.262629
H      3.630432    1.400242    0.835786
