15

C      2.373236    0.694942    0.136426
C      1.086184   -0.002551   -0.048016
C      0.725928   -1.330476   -0.122736
C     -0.677445   -1.352487   -0.308788
C     -1.085477   -0.036613   -0.335926
O     -0.014268    0.789565   -0.177408
C     -2.397000    0.620122   -0.495998
H      3.197055   -0.019221    0.230795
H      2.349473    1.309484    1.041534
H      2.582212    1.345407   -0.718369
H      1.393615   -2.177479   -0.051700
H     -1.314151   -2.219949   -0.410682
H     -3.194544   -0.119471   -0.616576
H     -2.628797    1.231412    0.381524
H     -2.396023    1.267315   -1.378375
