27

C      3.241202    0.103051   -0.165012
C      2.151362   -0.838236   -0.652564
C      0.940518   -0.919936    0.283513
C      0.211353    0.413828    0.561711
C     -0.321881    1.104734   -0.704242
C     -1.507971    0.369989   -1.325218
C     -2.633233    0.171302   -0.314112
C     -2.144500   -0.512361    0.959115
C     -0.940390    0.208249    1.564774
H      2.908227    1.144888   -0.181146
H      4.119939    0.027590   -0.813622
H      3.550469   -0.147646    0.854527
H      1.837839   -0.547408   -1.660774
H      2.579003   -1.844255   -0.744852
H      1.276747   -1.339453    1.240935
H      0.243723   -1.653694   -0.137312
H      0.930008    1.092960    1.037477
H      0.469580    1.228192   -1.450256
H     -0.643050    2.120601   -0.437752
H     -1.184933   -0.601987   -1.715471
H     -1.884702    0.942569   -2.180568
H     -3.436329   -0.421271   -0.766596
H     -3.064727    1.146805   -0.057285
H     -2.958512   -0.541390    1.692670
H     -1.885967   -1.554638    0.739924
H     -0.585523   -0.343364    2.443403
H     -1.268250    1.190883    1.928735
