21

C     -3.656393   -0.167255   -0.278939
O     -2.473179   -0.821822    0.153666
C     -1.284226   -0.172126   -0.043230
C     -0.130234   -0.836529    0.391340
C      1.147689   -0.273596    0.245122
C      1.269252    0.980555   -0.348864
C      0.126419    1.655124   -0.787253
C     -1.142165    1.083863   -0.636086
O      2.179110   -1.045259    0.719465
C      3.490186   -0.508126    0.588922
O     -0.240037   -2.075474    0.979129
H     -4.503887   -0.819570   -0.047156
H     -3.646519   -0.007883   -1.362236
H     -3.805920    0.775065    0.258378
H      2.231311    1.461833   -0.486722
H      0.222781    2.634407   -1.250913
H     -1.998323    1.646823   -0.992332
H      3.753496   -0.361405   -0.463761
H      3.594000    0.421945    1.157421
H      4.191879   -1.235036    1.009199
H      0.674762   -2.335533    1.194851
