16

C     -2.681350    0.181777    0.256048
C     -1.518995   -0.046908   -0.674492
O     -1.697268   -0.317773   -1.860996
C     -0.138311    0.076006   -0.065635
C      0.961927   -0.173387   -1.089639
C      2.317488   -0.045101   -0.458828
O      2.565176    0.219719    0.705176
O      3.310707   -0.260680   -1.341709
H     -2.652731   -0.552198    1.065091
H     -3.620747    0.067328   -0.291911
H     -2.630983    1.194685    0.662955
H     -0.062566   -0.647374    0.754333
H     -0.040991    1.083001    0.356090
H      0.867380   -1.182345   -1.506514
H      0.889022    0.553809   -1.906090
H      4.132242   -0.150559   -0.818827
