15

C     -1.991112   -0.207005   -0.381089
C     -0.580022   -0.326299    0.163328
C      0.237950    0.931578   -0.022067
C      1.646981    0.391423   -0.038333
C      1.449487   -0.965228   -0.645833
O      2.328877   -1.662545   -1.123438
O      0.136065   -1.332308   -0.558249
H     -2.526079   -1.154967   -0.259557
H     -2.549793    0.579443    0.134882
H     -1.983682    0.010915   -1.454725
H     -0.613738   -0.626334    1.217762
H      0.018348    1.403282   -0.988168
H      0.068491    1.673955    0.762849
H      2.051435    0.276310    0.971273
H      2.306792    1.007782   -0.652929
