18

C      1.345946    0.598440   -0.084077
C      1.157385   -0.914805   -0.018995
C     -0.193444   -1.338658   -0.589359
C     -1.345949   -0.598437    0.084074
C     -1.157383    0.914808    0.018993
C      0.193444    1.338654    0.589365
H      2.291752    0.873363    0.396176
H      1.416857    0.911930   -1.132935
H      1.232851   -1.246794    1.023835
H      1.963207   -1.411095   -0.571374
H     -0.212542   -1.138444   -1.667763
H     -0.324779   -2.419155   -0.462654
H     -2.291751   -0.873359   -0.396186
H     -1.416870   -0.911924    1.132930
H     -1.963208    1.411099    0.571364
H     -1.232838    1.246797   -1.023836
H      0.212542    1.138426    1.667767
H      0.324780    2.419153    0.462674
