26

C      3.556050    0.130072    1.465100
C      2.708745    0.353802    0.222647
C      1.301506   -0.220155    0.393286
C      0.453254    0.012553   -0.858458
C     -0.927798   -0.650163   -0.793952
C     -1.842888   -0.188628    0.355973
C     -3.167868   -0.954591    0.299950
C     -2.114282    1.315574    0.318745
H      3.660814   -0.937910    1.681352
H      3.108129    0.615420    2.338107
H      4.557548    0.547394    1.321068
H      3.201225   -0.115430   -0.636985
H      2.649653    1.428814    0.016242
H      1.365987   -1.295294    0.599608
H      0.827214    0.250452    1.261687
H      0.982010   -0.396376   -1.728933
H      0.347881    1.087609   -1.043447
H     -0.787212   -1.736592   -0.721635
H     -1.434416   -0.471212   -1.751436
H     -1.367648   -0.429723    1.314081
H     -3.816622   -0.671571    1.135737
H     -2.996082   -2.034359    0.363130
H     -3.706920   -0.750244   -0.631465
H     -2.538580    1.618705   -0.644373
H     -2.821893    1.601973    1.104382
H     -1.197806    1.889878    0.484465
