17

C      2.525200   -0.130499   -0.847395
O      1.597735    0.729610   -0.195765
C      0.332992    0.234305   -0.006332
C     -0.125959   -1.025658   -0.390328
C     -1.450829   -1.396820   -0.129989
C     -2.320328   -0.513677    0.513101
C     -1.869947    0.746214    0.899758
C     -0.553751    1.106297    0.637496
O     -0.134189    2.349924    1.027007
H      2.698072   -1.040045   -0.262684
H      3.477941    0.402387   -0.923138
H      2.195400   -0.368923   -1.863973
H      0.514847   -1.742501   -0.891929
H     -1.806011   -2.379784   -0.430467
H     -3.347589   -0.807280    0.712524
H     -2.535566    1.442463    1.400516
H      0.801982    2.393988    0.751597
