24

C      2.127836    0.629251   -0.562552
C      1.852706   -0.581017    0.310724
C      0.380621   -0.918210    0.630316
C     -0.445704   -1.347265   -0.594041
C     -1.166587   -0.216674   -1.321935
C     -1.955202    0.662829   -0.363134
C     -1.054812    1.233140    0.722584
C     -0.331429    0.134969    1.496196
H      3.208785    0.741962   -0.701570
H      1.767491    1.551780   -0.103561
H      1.688099    0.521902   -1.555874
H      2.312125   -1.455828   -0.167609
H      2.390077   -0.444708    1.258256
H      0.457085   -1.816075    1.262832
H      0.178098   -1.904814   -1.302650
H     -1.211500   -2.054900   -0.247419
H     -1.848186   -0.644456   -2.066631
H     -0.452889    0.398079   -1.878093
H     -2.428123    1.481245   -0.917636
H     -2.762807    0.078907    0.095091
H     -1.657606    1.827532    1.419352
H     -0.335219    1.924375    0.274279
H      0.370058    0.585060    2.208552
H     -1.082917   -0.387083    2.104525
