14

C     -1.037182    1.372878   -0.043427
C     -1.693701    0.261454   -0.582972
C     -1.044141   -0.971785   -0.652331
C      0.255922   -1.078387   -0.180522
C      0.912861    0.026221    0.357422
C      0.272851    1.258238    0.430133
O      2.193695   -0.150578    0.803694
O      0.893319   -2.284299   -0.247487
H     -1.550860    2.330002    0.006735
H     -2.712649    0.356653   -0.949749
H     -1.545738   -1.839448   -1.069342
H      0.767137    2.130125    0.845429
H      2.512131    0.702005    1.146452
H      1.776353   -2.113079    0.135967
