20

C     -1.125409    1.099229    0.671136
C     -1.330724   -0.393964    0.390315
C     -0.005344   -1.155063    0.556408
C      1.107579   -0.480561   -0.259880
C      1.143102    1.038028    0.016407
O     -0.129974    1.641513   -0.200742
O      2.078072    1.653895   -0.860193
O      0.905135   -0.698101   -1.670478
O      0.346714   -1.205235    1.940874
O     -1.792314   -0.572801   -0.958894
H     -0.844294    1.284149    1.714175
H     -2.051266    1.647728    0.469350
H     -2.091265   -0.795582    1.068739
H     -0.144322   -2.183764    0.201478
H      2.085926   -0.909420   -0.016629
H      1.465871    1.243077    1.043435
H      1.959990    1.181952   -1.706714
H     -0.044623   -0.509417   -1.841406
H      1.044267   -1.880032    2.036955
H     -2.577120   -0.005630   -1.074834
