13

C      1.971814    0.206029    0.067955
C      1.530532   -1.095584    0.108228
O      0.180592   -1.145036   -0.030640
C     -0.252591    0.143362   -0.165037
C      0.819081    1.009268   -0.107093
C     -1.711687    0.330099   -0.327423
O     -2.343680   -0.156002    0.850575
H      2.997773    0.534222    0.157465
H      2.023856   -2.050503    0.225419
H      0.771705    2.087148   -0.177826
H     -2.087823   -0.230439   -1.188223
H     -1.971983    1.384866   -0.451691
H     -1.927589   -1.017432    1.038290
