26

C      3.049756    0.430485    0.483806
C      1.849870    0.241302   -0.451956
C      0.510294    0.419056    0.282216
C     -0.683287    0.343088   -0.686683
C     -2.049093    0.339166    0.019490
C     -2.307787   -0.909731    0.863030
O     -3.644253   -0.845872    1.372331
O     -3.063685    0.419667   -1.007067
O     -0.644292    1.527243   -1.519107
O      0.475010    1.691870    0.942843
O      1.920764   -1.078644   -1.012165
O      4.251567    0.191066   -0.258933
H      3.027618   -0.303301    1.295724
H      3.094698    1.435955    0.912549
H      1.940920    0.951047   -1.282443
H      0.425914   -0.362187    1.044396
H     -0.607636   -0.522522   -1.354393
H     -2.181795    1.242572    0.625657
H     -2.245073   -1.812794    0.247925
H     -1.618474   -1.003436    1.706024
H     -3.644277   -0.203941    2.105500
H     -3.882493    0.083046   -0.586631
H     -1.508826    1.516286   -1.984678
H      0.256217    2.334878    0.233927
H      2.872661   -1.237631   -1.179593
H      4.405682    0.978204   -0.811769
