15

C      2.409903   -0.372163   -0.525989
C      1.064909    0.146763   -0.211790
C      0.553980    1.412275   -0.021578
C     -0.824908    1.247685    0.254344
C     -1.068863   -0.107934    0.215187
O      0.079731   -0.782795   -0.068501
C     -2.277107   -0.931626    0.411899
H      2.395373   -0.927915   -1.468527
H      2.756236   -1.042943    0.266196
H      3.133038    0.443562   -0.622330
H      1.108234    2.338650   -0.075437
H     -1.552289    2.021077    0.456947
H     -3.147043   -0.306059    0.634360
H     -2.135163   -1.626820    1.244969
H     -2.496029   -1.511755   -0.489751
