 Entering Gaussian System
 *********************************************
 Gaussian 98:
 frequency output generated by the xtb code
 *********************************************
                         Standard orientation:
 --------------------------------------------------------------------
  Center     Atomic     Atomic              Coordinates (Angstroms)
  Number     Number      Type              X           Y           Z
 --------------------------------------------------------------------
    1          6             0       -1.968278   -0.335308    0.004466
    2          6             0       -0.617019   -0.153007    0.676119
    3          6             0        0.229549    0.985917    0.082520
    4          6             0        1.649623    0.445311    0.185024
    5          6             0        1.443867   -1.063518    0.233173
    6          8             0        2.272963   -1.909204    0.070373
    7          8             0        0.163985   -1.337941    0.507060
    8          1             0       -2.489725   -1.181246    0.443025
    9          1             0       -1.834891   -0.524056   -1.057862
   10          1             0       -2.567760    0.561163    0.136999
   11          1             0       -0.756054   -0.009774    1.757094
   12          1             0       -0.045259    1.141390   -0.961859
   13          1             0        0.082890    1.917660    0.623693
   14          1             0        2.140197    0.744622    1.113420
   15          1             0        2.295924    0.717997   -0.645960
 --------------------------------------------------------------------
     1 basis functions        1 primitive gaussians
     1 alpha electrons        1 beta electrons
 
 Harmonic frequencies (cm**-1), IR intensities (km*mol⁻¹),
 Raman scattering activities (A**4/amu), Raman depolarization ratios,
 reduced masses (AMU), force constants (mDyne/A) and normal coordinates:
                      1                      2                      3
                        a                      a                      a 
 Frequencies --    98.5708               134.7288               197.4662
 Red. masses --     9.2540                10.5221                 2.1193
 Frc consts  --     0.0000                 0.0000                 0.0000
 IR Inten    --     0.8622                 2.3530                 0.1461
 Raman Activ --     0.0000                 0.0000                 0.0000
 Depolar     --     0.0000                 0.0000                 0.0000
 Atom AN      X      Y      Z        X      Y      Z        X      Y      Z
   1   6    -0.19   0.11   0.36    -0.09   0.14   0.09    -0.02   0.10   0.01
   2   6     0.05  -0.01  -0.12     0.00  -0.10  -0.02    -0.00  -0.10   0.04
   3   6     0.02  -0.12  -0.32    -0.04   0.06   0.22    -0.05  -0.02   0.11
   4   6     0.02   0.02   0.31    -0.03  -0.03  -0.35    -0.04   0.01  -0.04
   5   6     0.05   0.00   0.02     0.02  -0.03  -0.05     0.02  -0.00  -0.03
   6   8     0.12   0.05   0.13     0.17   0.00   0.50     0.10   0.06   0.05
   7   8    -0.05  -0.05  -0.45    -0.04  -0.08  -0.42     0.00  -0.08  -0.14
   8   1    -0.03   0.04   0.15     0.01  -0.03  -0.07    -0.29   0.38   0.33
   9   1    -0.18   0.04   0.09    -0.07   0.20  -0.01     0.04  -0.48   0.10
  10   1    -0.02   0.04   0.18    -0.04   0.01   0.19     0.24   0.26  -0.45
  11   1     0.13   0.00  -0.02     0.03  -0.11   0.01     0.01  -0.05   0.02
  12   1     0.09  -0.17  -0.14    -0.09   0.15   0.10    -0.04   0.02   0.04
  13   1    -0.07   0.02  -0.21     0.04  -0.04   0.19    -0.01  -0.03   0.07
  14   1    -0.15  -0.02   0.18     0.14   0.03  -0.19     0.02   0.00  -0.03
  15   1     0.13   0.05   0.20    -0.12  -0.06  -0.21    -0.04   0.00  -0.03
                      4                      5                      6
                        a                      a                      a 
 Frequencies --   298.4744               452.5652               497.4704
 Red. masses --     9.9309                 9.2048                12.7338
 Frc consts  --     0.0000                 0.0000                 0.0000
 IR Inten    --     1.5748                 1.8787                 9.6185
 Raman Activ --     0.0000                 0.0000                 0.0000
 Depolar     --     0.0000                 0.0000                 0.0000
 Atom AN      X      Y      Z        X      Y      Z        X      Y      Z
   1   6    -0.04   0.48  -0.12    -0.49  -0.05  -0.00     0.19  -0.04   0.04
   2   6    -0.04  -0.22   0.07    -0.17   0.03  -0.40     0.05   0.19   0.10
   3   6    -0.15  -0.25  -0.10     0.20   0.09   0.06     0.16   0.06  -0.05
   4   6    -0.13  -0.04  -0.05     0.15  -0.13   0.03    -0.09  -0.31  -0.01
   5   6     0.04  -0.04   0.05     0.07  -0.07   0.12    -0.32  -0.16   0.00
   6   8     0.26   0.19  -0.12     0.23   0.10  -0.13     0.30   0.49  -0.04
   7   8     0.10  -0.24   0.32     0.05  -0.01   0.25    -0.40  -0.18  -0.02
   8   1    -0.15   0.14  -0.19    -0.08   0.02   0.14     0.12  -0.05   0.01
   9   1    -0.02   0.31  -0.07    -0.34  -0.06  -0.02     0.13  -0.04   0.03
  10   1     0.11   0.20   0.10    -0.10   0.00   0.07    -0.04  -0.07  -0.06
  11   1    -0.03  -0.05   0.01    -0.11   0.05  -0.12     0.05   0.08   0.03
  12   1    -0.05  -0.15  -0.04     0.11   0.22   0.03     0.04   0.02  -0.01
  13   1    -0.08  -0.04  -0.09     0.10  -0.05   0.16     0.11   0.03  -0.02
  14   1    -0.05   0.02  -0.02     0.09  -0.03  -0.02     0.00  -0.14  -0.00
  15   1    -0.04  -0.01  -0.02     0.03  -0.09  -0.02     0.03  -0.18   0.00
                      7                      8                      9
                        a                      a                      a 
 Frequencies --   524.0193               612.0001               641.2463
 Red. masses --     8.6424                 9.7540                12.5661
 Frc consts  --     0.0000                 0.0000                 0.0000
 IR Inten    --     7.7509                 4.4701                 5.8384
 Raman Activ --     0.0000                 0.0000                 0.0000
 Depolar     --     0.0000                 0.0000                 0.0000
 Atom AN      X      Y      Z        X      Y      Z        X      Y      Z
   1   6    -0.01  -0.03  -0.01     0.27   0.03   0.08     0.06  -0.05   0.02
   2   6    -0.03  -0.08   0.06     0.30  -0.07  -0.32     0.15  -0.31  -0.16
   3   6     0.10  -0.18   0.01    -0.15   0.33  -0.15     0.25  -0.14   0.01
   4   6     0.21   0.07   0.06    -0.28   0.09   0.04     0.24   0.14  -0.05
   5   6     0.02   0.13   0.58    -0.04  -0.08   0.32    -0.29   0.30  -0.26
   6   8    -0.19   0.14  -0.23    -0.12  -0.08  -0.09    -0.40   0.31   0.18
   7   8    -0.11  -0.02  -0.23     0.03  -0.29   0.04    -0.02  -0.24   0.15
   8   1    -0.01  -0.01  -0.02     0.09   0.03   0.08    -0.01   0.02   0.04
   9   1     0.02  -0.00  -0.00    -0.04   0.01   0.01    -0.09   0.01  -0.01
  10   1    -0.01  -0.01  -0.01     0.14   0.04   0.10     0.10   0.03   0.09
  11   1    -0.00  -0.04   0.02     0.13   0.03  -0.09     0.02  -0.05  -0.05
  12   1     0.05  -0.16  -0.02    -0.06   0.32  -0.00     0.09   0.00   0.00
  13   1    -0.03  -0.01  -0.09    -0.06  -0.03   0.17    -0.02  -0.08   0.05
  14   1     0.27   0.30  -0.20    -0.12   0.12  -0.00     0.06  -0.09   0.03
  15   1    -0.12  -0.25  -0.22    -0.03  -0.07   0.02     0.11   0.06   0.02
                     10                     11                     12
                        a                      a                      a 
 Frequencies --   829.6878               864.6488               923.5941
 Red. masses --     6.6321                10.1810                 8.1885
 Frc consts  --     0.0000                 0.0000                 0.0000
 IR Inten    --    14.5713                 1.9347                 9.1246
 Raman Activ --     0.0000                 0.0000                 0.0000
 Depolar     --     0.0000                 0.0000                 0.0000
 Atom AN      X      Y      Z        X      Y      Z        X      Y      Z
   1   6    -0.04  -0.04   0.03    -0.27  -0.01   0.00     0.15   0.17   0.01
   2   6    -0.05  -0.12   0.13    -0.09  -0.01   0.28    -0.03   0.13  -0.13
   3   6     0.02  -0.19  -0.16     0.14   0.30  -0.15    -0.05  -0.46   0.05
   4   6     0.01  -0.27  -0.24     0.23   0.35  -0.14     0.17   0.29  -0.12
   5   6     0.09   0.19   0.27     0.03  -0.07   0.05     0.06  -0.10   0.05
   6   8    -0.13   0.13  -0.04     0.05  -0.10  -0.02     0.13  -0.07  -0.04
   7   8     0.09   0.25  -0.11    -0.11  -0.47   0.01    -0.35  -0.01   0.05
   8   1    -0.11  -0.00  -0.09    -0.14  -0.05  -0.17     0.28  -0.02   0.16
   9   1     0.09   0.04   0.01     0.19   0.02   0.03    -0.01  -0.08   0.02
  10   1     0.04   0.03  -0.01    -0.15  -0.03  -0.16    -0.14  -0.07  -0.03
  11   1     0.02  -0.02   0.04     0.09  -0.01   0.09    -0.04   0.11  -0.05
  12   1    -0.19   0.25   0.06    -0.04   0.11  -0.01    -0.10   0.07   0.07
  13   1     0.27  -0.16   0.22     0.08   0.07  -0.01    -0.07  -0.25   0.21
  14   1    -0.34  -0.08   0.12    -0.09   0.11   0.05    -0.11   0.13   0.04
  15   1     0.29  -0.06   0.17     0.20   0.10   0.07     0.05   0.29   0.04
                     13                     14                     15
                        a                      a                      a 
 Frequencies --   963.5727               970.4982              1048.2459
 Red. masses --     8.3214                 5.5547                 4.0152
 Frc consts  --     0.0000                 0.0000                 0.0000
 IR Inten    --    24.6240                16.1245                 3.9905
 Raman Activ --     0.0000                 0.0000                 0.0000
 Depolar     --     0.0000                 0.0000                 0.0000
 Atom AN      X      Y      Z        X      Y      Z        X      Y      Z
   1   6     0.06  -0.25   0.12    -0.14   0.14   0.14    -0.10  -0.04   0.12
   2   6    -0.01  -0.22   0.00    -0.03   0.13  -0.06     0.09  -0.02  -0.17
   3   6    -0.03   0.02  -0.17    -0.07  -0.22  -0.16     0.04   0.00   0.15
   4   6     0.16   0.13   0.14    -0.06  -0.12   0.27    -0.07  -0.04  -0.25
   5   6    -0.06  -0.18  -0.13     0.02   0.13  -0.21     0.05  -0.00   0.32
   6   8     0.19  -0.07  -0.01    -0.09   0.03   0.06    -0.03   0.03  -0.06
   7   8    -0.34   0.36   0.07     0.23  -0.09   0.02    -0.04   0.05  -0.02
   8   1    -0.32   0.03  -0.20     0.01  -0.07  -0.13    -0.13  -0.03  -0.14
   9   1     0.11   0.14   0.01     0.34   0.00   0.08     0.21   0.05   0.04
  10   1     0.31   0.12   0.10    -0.24  -0.07  -0.23    -0.02   0.01  -0.09
  11   1     0.06   0.12  -0.01     0.28   0.16  -0.00     0.21   0.10  -0.03
  12   1     0.07   0.19  -0.04     0.11   0.25  -0.03     0.27  -0.08  -0.04
  13   1    -0.15  -0.11   0.13    -0.06  -0.20   0.20    -0.24   0.00  -0.04
  14   1     0.11   0.12  -0.03     0.15   0.09  -0.07     0.10  -0.48   0.04
  15   1    -0.01  -0.05  -0.04    -0.17  -0.14  -0.09    -0.12   0.43   0.01
                     16                     17                     18
                        a                      a                      a 
 Frequencies --  1061.7768              1096.2337              1135.5279
 Red. masses --     5.7057                 9.5597                 9.6579
 Frc consts  --     0.0000                 0.0000                 0.0000
 IR Inten    --     7.5403                53.2178               109.0216
 Raman Activ --     0.0000                 0.0000                 0.0000
 Depolar     --     0.0000                 0.0000                 0.0000
 Atom AN      X      Y      Z        X      Y      Z        X      Y      Z
   1   6    -0.00   0.13  -0.00     0.31  -0.09   0.16     0.12   0.22   0.15
   2   6     0.04  -0.06  -0.03    -0.55   0.25  -0.06    -0.20  -0.49  -0.05
   3   6    -0.41   0.18   0.02    -0.22   0.01  -0.08     0.14   0.19  -0.10
   4   6     0.42  -0.11  -0.07     0.21  -0.08   0.01    -0.15  -0.05   0.01
   5   6    -0.06  -0.03   0.03     0.12   0.15   0.02     0.32   0.23  -0.07
   6   8     0.01   0.03  -0.00    -0.04   0.00   0.00     0.05  -0.08  -0.01
   7   8     0.04   0.07   0.02     0.07  -0.30  -0.07    -0.31   0.09   0.09
   8   1     0.12  -0.02   0.05    -0.04   0.04   0.02     0.22  -0.05   0.07
   9   1     0.03  -0.05   0.02     0.07   0.08   0.03     0.17  -0.09   0.08
  10   1    -0.14  -0.05  -0.06     0.25   0.08   0.13    -0.17  -0.07  -0.08
  11   1     0.02  -0.09   0.01    -0.26   0.11  -0.04    -0.19  -0.15  -0.02
  12   1    -0.14  -0.03  -0.00     0.07   0.11  -0.04     0.19   0.05  -0.07
  13   1    -0.49  -0.02   0.02     0.09   0.02  -0.01     0.03   0.06  -0.05
  14   1     0.11  -0.21   0.04     0.14  -0.15   0.00     0.02  -0.06  -0.01
  15   1     0.33  -0.30   0.06    -0.00   0.11  -0.01    -0.02  -0.08  -0.01
                     19                     20                     21
                        a                      a                      a 
 Frequencies --  1155.4464              1171.9329              1187.6974
 Red. masses --     8.9611                 7.4417                 4.6623
 Frc consts  --     0.0000                 0.0000                 0.0000
 IR Inten    --   177.5859               101.9913                10.7947
 Raman Activ --     0.0000                 0.0000                 0.0000
 Depolar     --     0.0000                 0.0000                 0.0000
 Atom AN      X      Y      Z        X      Y      Z        X      Y      Z
   1   6     0.09   0.05   0.27     0.05   0.07  -0.16    -0.02   0.08   0.06
   2   6    -0.28   0.01  -0.29    -0.12  -0.08   0.38     0.08  -0.15  -0.16
   3   6     0.19  -0.03   0.12     0.15   0.01  -0.36    -0.25   0.05  -0.16
   4   6    -0.06   0.17  -0.11    -0.07   0.14   0.05     0.26  -0.07   0.18
   5   6    -0.35  -0.30   0.05    -0.22  -0.20   0.12    -0.15  -0.13   0.06
   6   8     0.02   0.03  -0.00     0.00   0.03  -0.01    -0.00   0.06  -0.00
   7   8     0.32   0.14  -0.01     0.23   0.10  -0.10    -0.00   0.11   0.07
   8   1    -0.01  -0.04  -0.07     0.13   0.03   0.14     0.04  -0.03  -0.02
   9   1     0.29   0.04   0.09    -0.20  -0.07  -0.04     0.09  -0.03   0.03
  10   1    -0.02   0.00  -0.09    -0.05  -0.04   0.07    -0.08  -0.02  -0.07
  11   1    -0.15  -0.30  -0.05    -0.13  -0.16   0.10     0.07  -0.29  -0.00
  12   1     0.08  -0.09   0.01     0.16   0.24  -0.08    -0.34   0.02   0.03
  13   1    -0.05   0.01  -0.04    -0.16  -0.17   0.15     0.46   0.12  -0.08
  14   1    -0.18   0.17   0.01     0.17  -0.25   0.00     0.21  -0.06  -0.01
  15   1     0.11  -0.09   0.03    -0.13   0.13  -0.04    -0.19   0.35  -0.04
                     22                     23                     24
                        a                      a                      a 
 Frequencies --  1254.8350              1276.9994              1298.0824
 Red. masses --     4.8454                 4.6961                 3.6254
 Frc consts  --     0.0000                 0.0000                 0.0000
 IR Inten    --     6.8636                26.4914                28.7334
 Raman Activ --     0.0000                 0.0000                 0.0000
 Depolar     --     0.0000                 0.0000                 0.0000
 Atom AN      X      Y      Z        X      Y      Z        X      Y      Z
   1   6    -0.01  -0.00   0.03    -0.04  -0.07   0.12     0.00  -0.10  -0.08
   2   6     0.01   0.00  -0.08     0.16   0.26  -0.07    -0.04   0.30  -0.04
   3   6    -0.02  -0.17   0.01     0.32   0.03  -0.17    -0.10  -0.11  -0.01
   4   6    -0.21   0.50   0.04    -0.09  -0.07   0.10    -0.04   0.07  -0.04
   5   6     0.02  -0.02   0.03     0.15   0.13  -0.02     0.13   0.12  -0.02
   6   8     0.05  -0.08  -0.02    -0.02  -0.02   0.00     0.02  -0.04  -0.01
   7   8    -0.00   0.01  -0.01    -0.10  -0.08   0.02    -0.17  -0.02   0.13
   8   1    -0.01  -0.01  -0.03    -0.14  -0.01  -0.11    -0.02   0.03   0.04
   9   1     0.04   0.01   0.01     0.07   0.05   0.02    -0.05   0.04  -0.04
  10   1     0.01   0.01  -0.01     0.02   0.02  -0.05     0.10   0.03   0.05
  11   1     0.01   0.13  -0.04    -0.35  -0.29  -0.02     0.37  -0.71   0.14
  12   1    -0.18  -0.06   0.05    -0.48  -0.10   0.09     0.27   0.07  -0.06
  13   1     0.30   0.01  -0.01    -0.31  -0.15   0.12     0.05  -0.03   0.02
  14   1     0.24  -0.50   0.06     0.06  -0.11   0.01    -0.00  -0.04   0.00
  15   1     0.14  -0.42  -0.02    -0.12   0.03  -0.03     0.06  -0.11   0.01
                     25                     26                     27
                        a                      a                      a 
 Frequencies --  1327.2768              1400.1162              1442.5338
 Red. masses --     4.9757                 3.3227                 1.9833
 Frc consts  --     0.0000                 0.0000                 0.0000
 IR Inten    --     9.7150                10.2919                 8.9716
 Raman Activ --     0.0000                 0.0000                 0.0000
 Depolar     --     0.0000                 0.0000                 0.0000
 Atom AN      X      Y      Z        X      Y      Z        X      Y      Z
   1   6    -0.09  -0.01   0.11    -0.42  -0.03  -0.16    -0.01   0.00   0.00
   2   6     0.47   0.10   0.06     0.08   0.01   0.03    -0.01   0.01  -0.00
   3   6    -0.30  -0.10   0.00    -0.01  -0.00  -0.01     0.00   0.03  -0.03
   4   6     0.03   0.04  -0.04     0.00  -0.00   0.01    -0.28  -0.08  -0.02
   5   6    -0.02  -0.02  -0.00    -0.01  -0.01  -0.00    -0.02  -0.01  -0.00
   6   8    -0.01   0.01   0.00    -0.01   0.01   0.00     0.00  -0.01  -0.00
   7   8    -0.02  -0.03  -0.03     0.01  -0.01  -0.01     0.01   0.01   0.00
   8   1    -0.10  -0.02  -0.10     0.41  -0.15   0.24     0.01  -0.01  -0.01
   9   1     0.02   0.04   0.02     0.49  -0.02   0.05     0.00  -0.01   0.00
  10   1    -0.08  -0.02  -0.12     0.40   0.27   0.23     0.01   0.01   0.00
  11   1    -0.60  -0.09  -0.06    -0.10   0.00  -0.01     0.00   0.00  -0.00
  12   1     0.41   0.13  -0.10    -0.00   0.02  -0.00     0.00  -0.15  -0.03
  13   1     0.16   0.01   0.00    -0.01   0.00  -0.01     0.04  -0.08   0.13
  14   1    -0.00   0.02  -0.01    -0.00  -0.00   0.00     0.51   0.20  -0.35
  15   1     0.06  -0.03   0.01    -0.01   0.00  -0.01     0.45   0.21   0.44
                     28                     29                     30
                        a                      a                      a 
 Frequencies --  1471.7582              1481.9625              1490.4151
 Red. masses --     1.5762                 1.9204                 1.6885
 Frc consts  --     0.0000                 0.0000                 0.0000
 IR Inten    --     2.4041                 7.4264                 2.8492
 Raman Activ --     0.0000                 0.0000                 0.0000
 Depolar     --     0.0000                 0.0000                 0.0000
 Atom AN      X      Y      Z        X      Y      Z        X      Y      Z
   1   6    -0.05  -0.09   0.18    -0.00   0.11   0.02     0.02  -0.17  -0.10
   2   6    -0.05  -0.04   0.04    -0.03   0.02  -0.00     0.01  -0.05  -0.01
   3   6    -0.00   0.05  -0.03    -0.09   0.22  -0.09    -0.05   0.13  -0.05
   4   6     0.01   0.00   0.00     0.07   0.02  -0.01     0.03   0.00   0.00
   5   6    -0.00  -0.00   0.00    -0.00  -0.00  -0.00     0.00  -0.00   0.00
   6   8     0.00   0.00  -0.00    -0.00   0.00   0.00    -0.00   0.00   0.00
   7   8     0.00   0.01  -0.00     0.00  -0.01   0.00    -0.00   0.01  -0.00
   8   1     0.34  -0.24  -0.02     0.02  -0.13  -0.25    -0.12   0.32   0.50
   9   1    -0.32   0.37  -0.09    -0.06  -0.32   0.05     0.23   0.50  -0.07
  10   1     0.23   0.24  -0.62     0.08   0.04   0.13    -0.21  -0.15  -0.04
  11   1     0.04   0.02   0.01     0.02   0.01   0.00    -0.02   0.02  -0.01
  12   1     0.01  -0.09  -0.02     0.14  -0.54  -0.13     0.05  -0.29  -0.06
  13   1     0.02  -0.04   0.08     0.17  -0.24   0.49     0.10  -0.12   0.25
  14   1    -0.02  -0.01   0.01    -0.11  -0.02   0.07    -0.05  -0.01   0.03
  15   1    -0.02  -0.00  -0.02    -0.09  -0.03  -0.09    -0.04  -0.01  -0.04
                     31                     32                     33
                        a                      a                      a 
 Frequencies --  1816.7992              2883.8160              2979.4475
 Red. masses --    13.4430                 1.7434                 1.7991
 Frc consts  --     0.0000                 0.0000                 0.0000
 IR Inten    --   581.8648                42.0884                 2.9189
 Raman Activ --     0.0000                 0.0000                 0.0000
 Depolar     --     0.0000                 0.0000                 0.0000
 Atom AN      X      Y      Z        X      Y      Z        X      Y      Z
   1   6     0.00  -0.00   0.00    -0.00   0.00   0.00    -0.00  -0.00   0.00
   2   6    -0.03   0.01   0.00     0.03  -0.02  -0.25     0.00  -0.00  -0.00
   3   6    -0.01   0.01   0.00     0.00   0.01   0.01    -0.02  -0.01  -0.09
   4   6    -0.01   0.05   0.00    -0.00   0.00   0.00     0.09   0.06   0.23
   5   6     0.54  -0.58  -0.11    -0.00  -0.00  -0.00     0.00   0.01   0.01
   6   8    -0.41   0.43   0.08    -0.00   0.00   0.00     0.00  -0.00  -0.00
   7   8    -0.02   0.02   0.01     0.01  -0.01  -0.00    -0.00   0.00   0.00
   8   1    -0.00   0.00  -0.00     0.01   0.01  -0.00     0.00   0.00  -0.00
   9   1    -0.00   0.00  -0.00     0.00  -0.01  -0.04     0.00  -0.00  -0.00
  10   1    -0.00  -0.00   0.00     0.00  -0.01   0.00    -0.00   0.00   0.00
  11   1     0.00  -0.01   0.00    -0.12   0.13   0.95    -0.00   0.00   0.01
  12   1    -0.00   0.00   0.00    -0.01   0.01  -0.04     0.08  -0.04   0.30
  13   1    -0.00   0.00  -0.00     0.00  -0.03  -0.01    -0.02   0.09   0.04
  14   1     0.01  -0.00  -0.01    -0.00  -0.00  -0.00    -0.40  -0.25  -0.76
  15   1     0.02  -0.02   0.00     0.00   0.00  -0.00     0.09   0.04  -0.07
                     34                     35                     36
                        a                      a                      a 
 Frequencies --  2995.4389              3029.3793              3033.6223
 Red. masses --     1.7939                 1.7143                 1.7049
 Frc consts  --     0.0000                 0.0000                 0.0000
 IR Inten    --    30.6198                21.4784                 9.4720
 Raman Activ --     0.0000                 0.0000                 0.0000
 Depolar     --     0.0000                 0.0000                 0.0000
 Atom AN      X      Y      Z        X      Y      Z        X      Y      Z
   1   6     0.00   0.01  -0.01     0.01  -0.02  -0.01    -0.00  -0.00   0.01
   2   6    -0.00   0.00   0.02    -0.00   0.00   0.01    -0.00   0.00  -0.00
   3   6     0.06  -0.01   0.24    -0.04   0.22   0.11    -0.01   0.03  -0.01
   4   6     0.05   0.03   0.07    -0.01   0.00   0.04     0.16   0.07  -0.17
   5   6     0.00   0.00   0.00    -0.00  -0.00   0.00     0.00   0.00  -0.00
   6   8     0.00  -0.00  -0.00    -0.00   0.00  -0.00    -0.00   0.00   0.00
   7   8    -0.00   0.00   0.00     0.00  -0.00  -0.00    -0.00  -0.00   0.00
   8   1    -0.01  -0.02   0.01     0.01   0.01  -0.01     0.01   0.02  -0.01
   9   1    -0.01   0.01   0.04    -0.00   0.00   0.03     0.00  -0.00  -0.02
  10   1     0.01  -0.01  -0.00    -0.03   0.05   0.01    -0.00   0.00   0.00
  11   1     0.01  -0.01  -0.03     0.00  -0.00  -0.02    -0.00   0.00   0.00
  12   1    -0.22   0.12  -0.86     0.02   0.02   0.11     0.02  -0.01   0.10
  13   1     0.02  -0.07  -0.01     0.12  -0.81  -0.49     0.01  -0.08  -0.05
  14   1    -0.14  -0.09  -0.28    -0.03  -0.02  -0.05    -0.03  -0.02  -0.12
  15   1    -0.03  -0.01   0.05     0.06   0.03  -0.08    -0.55  -0.24   0.74
                     37                     38                     39
                        a                      a                      a 
 Frequencies --  3045.0449              3049.7922              3058.0740
 Red. masses --     1.6707                 1.7993                 1.6950
 Frc consts  --     0.0000                 0.0000                 0.0000
 IR Inten    --    19.2070                25.6813                13.4697
 Raman Activ --     0.0000                 0.0000                 0.0000
 Depolar     --     0.0000                 0.0000                 0.0000
 Atom AN      X      Y      Z        X      Y      Z        X      Y      Z
   1   6    -0.01  -0.03   0.24     0.15  -0.20  -0.10    -0.11  -0.21   0.07
   2   6     0.00   0.00   0.02     0.00  -0.01  -0.01    -0.00  -0.01   0.00
   3   6     0.00   0.00   0.01     0.00  -0.01  -0.01     0.00  -0.01   0.00
   4   6    -0.00  -0.00   0.01     0.00   0.00  -0.00    -0.00  -0.00   0.00
   5   6    -0.00  -0.00   0.00    -0.00  -0.00   0.00    -0.00  -0.00   0.00
   6   8     0.00  -0.00  -0.00     0.00  -0.00  -0.00     0.00   0.00  -0.00
   7   8     0.00   0.00  -0.00     0.00   0.00   0.00     0.00   0.00   0.00
   8   1     0.04   0.08  -0.01    -0.02  -0.09   0.02     0.45   0.74  -0.40
   9   1     0.13  -0.17  -0.91    -0.01   0.01   0.21    -0.03  -0.01   0.13
  10   1    -0.13   0.19   0.06    -0.51   0.78   0.11    -0.04   0.01   0.02
  11   1     0.01  -0.00  -0.03    -0.00   0.00   0.02     0.00  -0.00  -0.01
  12   1    -0.01   0.01  -0.04    -0.00  -0.00  -0.01    -0.00   0.00  -0.02
  13   1     0.00  -0.01  -0.00    -0.01   0.05   0.03    -0.00   0.02   0.01
  14   1    -0.00  -0.00  -0.01     0.00   0.00   0.00     0.00   0.00   0.00
  15   1     0.01   0.01  -0.02    -0.01  -0.00   0.01     0.01   0.00  -0.01
