14
Coordinates from ORCA-job optfreq E -382.628601367459
  C          -1.71140907845844      0.59099971946453      0.12902916189467
  C          -1.50748360992673     -0.74356108819983      0.46095684949987
  C          -0.22507355178359     -1.28677399160641      0.39198362586821
  C           0.84064572544627     -0.49369852537594     -0.00726998344119
  C           0.63776468873165      0.85142414997629     -0.34242240417216
  C          -0.64121627472767      1.38717226494695     -0.27186406624816
  O           1.67820657891117      1.64019395997289     -0.73630912511453
  O           2.14105825402341     -0.93683509569632     -0.10685892832595
  H          -2.70691549112302      1.02021214733899      0.18066042581192
  H          -2.33841713339448     -1.36734523889628      0.77369133116013
  H          -0.05346748990444     -2.33023141725985      0.64932114265965
  H          -0.78000485908681      2.43126498807654     -0.53482875860374
  H           2.48189359870981      1.10362347484216     -0.72645817332032
  H           2.18442164258286     -1.86644434758374      0.14036790233158
