14
Coordinates from ORCA-job optfreq E -382.628083710516
  C      -1.705111      0.588050      0.128860
  C      -1.494806     -0.737921      0.457303
  C      -0.218569     -1.274344      0.387303
  C       0.843613     -0.484271     -0.010644
  C       0.634186      0.860424     -0.344380
  C      -0.646040      1.385566     -0.270602
  O       1.674167      1.641061     -0.735955
  O       2.135629     -0.951548     -0.102326
  H      -2.697517      1.008181      0.182466
  H      -2.318295     -1.361619      0.768892
  H      -0.045514     -2.311495      0.642748
  H      -0.790487      2.421737     -0.530650
  H       2.473472      1.096787     -0.722569
  H       2.155274     -1.880607      0.149552
14
Coordinates from ORCA-job optfreq E -382.628563940295
  C      -1.710254      0.589760      0.129218
  C      -1.504041     -0.742918      0.460229
  C      -0.222574     -1.282694      0.390320
  C       0.842766     -0.489375     -0.009015
  C       0.637867      0.855865     -0.343753
  C      -0.642837      1.386815     -0.271483
  O       1.679745      1.641181     -0.736970
  O       2.139632     -0.942410     -0.105445
  H      -2.706739      1.016585      0.181711
  H      -2.333860     -1.368287      0.773288
  H      -0.049089     -2.326055      0.647312
  H      -0.783798      2.430747     -0.534081
  H       2.481869      1.102298     -0.725746
  H       2.171317     -1.871512      0.144414
14
Coordinates from ORCA-job optfreq E -382.628597402730
  C      -1.711502      0.590622      0.129174
  C      -1.507094     -0.744025      0.461025
  C      -0.224437     -1.285874      0.391549
  C       0.841485     -0.492212     -0.007951
  C       0.638236      0.852930     -0.342993
  C      -0.641560      1.386977     -0.271755
  O       1.679429      1.640791     -0.736782
  O       2.140745     -0.938327     -0.106636
  H      -2.707413      1.019467      0.181036
  H      -2.337869     -1.368402      0.773935
  H      -0.051727     -2.329562      0.648731
  H      -0.780736      2.431427     -0.534719
  H       2.482828      1.103958     -0.726542
  H       2.179618     -1.867768      0.141926
14
Coordinates from ORCA-job optfreq E -382.628600837410
  C      -1.711514      0.590924      0.129082
  C      -1.507552     -0.743847      0.461047
  C      -0.224963     -1.286653      0.391890
  C       0.840875     -0.493331     -0.007474
  C       0.637968      0.851768     -0.342590
  C      -0.641241      1.387062     -0.271830
  O       1.678566      1.640442     -0.736491
  O       2.141012     -0.937173     -0.106878
  H      -2.707074      1.020164      0.180750
  H      -2.338465     -1.367740      0.773823
  H      -0.052923     -2.330171      0.649144
  H      -0.780007      2.431293     -0.534808
  H       2.482280      1.103979     -0.726562
  H       2.183040     -1.866716      0.140896
14
Coordinates from ORCA-job optfreq E -382.628601367459
  C      -1.711409      0.591000      0.129029
  C      -1.507484     -0.743561      0.460957
  C      -0.225074     -1.286774      0.391984
  C       0.840646     -0.493699     -0.007270
  C       0.637765      0.851424     -0.342422
  C      -0.641216      1.387172     -0.271864
  O       1.678207      1.640194     -0.736309
  O       2.141058     -0.936835     -0.106859
  H      -2.706915      1.020212      0.180660
  H      -2.338417     -1.367345      0.773691
  H      -0.053467     -2.330231      0.649321
  H      -0.780005      2.431265     -0.534829
  H       2.481894      1.103623     -0.726458
  H       2.184422     -1.866444      0.140368
