 Entering Gaussian System
 *********************************************
 Gaussian 98:
 frequency output generated by the xtb code
 *********************************************
                         Standard orientation:
 --------------------------------------------------------------------
  Center     Atomic     Atomic              Coordinates (Angstroms)
  Number     Number      Type              X           Y           Z
 --------------------------------------------------------------------
    1          6             0       -2.915165   -0.276090    2.179509
    2          8             0       -1.894044   -0.945634    1.485757
    3          6             0       -1.009432   -0.202357    0.764408
    4          6             0       -0.013808   -0.924601    0.094282
    5          6             0        0.942138   -0.251987   -0.673359
    6          6             0        0.911141    1.130302   -0.776148
    7          6             0       -0.075924    1.833921   -0.110653
    8          6             0       -1.028170    1.183071    0.652275
    9          8             0        1.864455   -1.080536   -1.279643
   10          6             0        2.862562   -0.488630   -2.071096
   11          8             0        0.015338   -2.281402    0.196120
   12          1             0       -3.491256   -1.055351    2.676117
   13          1             0       -3.570300    0.278830    1.499219
   14          1             0       -2.511046    0.409167    2.932530
   15          1             0        1.641877    1.660451   -1.364397
   16          1             0       -0.103372    2.909867   -0.188207
   17          1             0       -1.783155    1.762555    1.157543
   18          1             0        3.491648    0.187335   -1.483419
   19          1             0        2.432328    0.056991   -2.916814
   20          1             0        3.469494   -1.312168   -2.444749
   21          1             0        0.764686   -2.593733   -0.329274
 --------------------------------------------------------------------
     1 basis functions        1 primitive gaussians
     1 alpha electrons        1 beta electrons
 
 Harmonic frequencies (cm**-1), IR intensities (km*mol⁻¹),
 Raman scattering activities (A**4/amu), Raman depolarization ratios,
 reduced masses (AMU), force constants (mDyne/A) and normal coordinates:
                      1                      2                      3
                        a                      a                      a 
 Frequencies --    56.8427                91.8627               146.8866
 Red. masses --     9.2625                11.0106                14.0069
 Frc consts  --     0.0000                 0.0000                 0.0000
 IR Inten    --     6.8969                 0.2319                 4.7138
 Raman Activ --     0.0000                 0.0000                 0.0000
 Depolar     --     0.0000                 0.0000                 0.0000
 Atom AN      X      Y      Z        X      Y      Z        X      Y      Z
   1   6     0.28   0.03   0.37     0.23   0.03   0.31    -0.03  -0.00  -0.05
   2   8    -0.01  -0.00  -0.01    -0.26  -0.03  -0.35     0.30   0.04   0.41
   3   6    -0.06  -0.01  -0.09    -0.13  -0.02  -0.17     0.05   0.01   0.07
   4   6    -0.10  -0.01  -0.14    -0.02  -0.00  -0.03    -0.07  -0.01  -0.09
   5   6    -0.09  -0.01  -0.13     0.10   0.01   0.14     0.06   0.01   0.08
   6   6    -0.09  -0.01  -0.12     0.11   0.01   0.15     0.01   0.00   0.01
   7   6    -0.09  -0.01  -0.12    -0.01  -0.00  -0.02    -0.11  -0.01  -0.15
   8   6    -0.06  -0.01  -0.08    -0.13  -0.02  -0.18    -0.04  -0.00  -0.05
   9   8    -0.08  -0.01  -0.10     0.26   0.03   0.35     0.26   0.03   0.36
  10   6     0.33   0.04   0.44    -0.15  -0.02  -0.21    -0.02  -0.00  -0.03
  11   8    -0.15  -0.02  -0.20    -0.03  -0.00  -0.04    -0.35  -0.04  -0.48
  12   1     0.12   0.01   0.16     0.11   0.01   0.15     0.03   0.00   0.04
  13   1     0.02   0.03   0.18    -0.01   0.06   0.21    -0.02  -0.12  -0.10
  14   1     0.17  -0.01   0.07     0.21  -0.04   0.05    -0.10   0.10  -0.06
  15   1    -0.03  -0.00  -0.04     0.06   0.01   0.09     0.01   0.00   0.02
  16   1    -0.03  -0.00  -0.04    -0.00  -0.00  -0.01    -0.06  -0.01  -0.08
  17   1    -0.01  -0.00  -0.02    -0.07  -0.01  -0.09    -0.01  -0.00  -0.02
  18   1     0.02  -0.01   0.23     0.01   0.03  -0.17    -0.01   0.07  -0.10
  19   1     0.22   0.04   0.08    -0.16  -0.05  -0.03    -0.08  -0.09  -0.03
  20   1     0.14   0.02   0.19    -0.07  -0.01  -0.10     0.01   0.00   0.02
  21   1    -0.03  -0.00  -0.05     0.01   0.00   0.01    -0.08  -0.01  -0.11
                      4                      5                      6
                        a                      a                      a 
 Frequencies --   183.6826               187.2196               230.9979
 Red. masses --    10.2664                 5.9779                11.9434
 Frc consts  --     0.0000                 0.0000                 0.0000
 IR Inten    --     2.3722                 0.1127                 3.4029
 Raman Activ --     0.0000                 0.0000                 0.0000
 Depolar     --     0.0000                 0.0000                 0.0000
 Atom AN      X      Y      Z        X      Y      Z        X      Y      Z
   1   6     0.02   0.49  -0.06    -0.00  -0.00  -0.00     0.02  -0.27   0.01
   2   8    -0.16   0.08   0.11     0.12   0.01   0.16     0.13   0.02  -0.10
   3   6     0.01  -0.18   0.01    -0.05  -0.01  -0.07     0.03   0.14  -0.04
   4   6     0.01  -0.22   0.02     0.01   0.00   0.01    -0.03  -0.01   0.02
   5   6    -0.01  -0.15   0.02     0.05   0.01   0.07     0.04  -0.17  -0.01
   6   6    -0.02  -0.16   0.03     0.22   0.03   0.30     0.08  -0.15  -0.04
   7   6    -0.00  -0.15   0.02     0.00   0.00   0.01     0.15  -0.02  -0.11
   8   6     0.03  -0.18  -0.01    -0.22  -0.03  -0.30     0.07   0.13  -0.06
   9   8     0.12   0.06  -0.10    -0.16  -0.02  -0.22     0.13  -0.04  -0.10
  10   6    -0.05   0.45  -0.00     0.00  -0.00   0.00    -0.04   0.36  -0.01
  11   8     0.07  -0.27  -0.03     0.03   0.00   0.04    -0.52   0.01   0.38
  12   1    -0.06   0.22   0.03     0.15   0.02   0.20     0.05  -0.13  -0.02
  13   1     0.05   0.15  -0.05    -0.13  -0.23  -0.06    -0.03  -0.08   0.03
  14   1     0.05   0.15  -0.05    -0.03   0.20  -0.17    -0.03  -0.08   0.03
  15   1    -0.01  -0.04   0.01     0.12   0.02   0.17     0.03  -0.06  -0.02
  16   1    -0.00  -0.04   0.01     0.00   0.00   0.00     0.08  -0.01  -0.06
  17   1     0.01  -0.05  -0.00    -0.13  -0.02  -0.17     0.03   0.05  -0.02
  18   1    -0.06   0.14   0.03     0.17  -0.25   0.11    -0.06   0.12   0.03
  19   1    -0.06   0.14   0.03     0.04   0.27   0.16    -0.06   0.12   0.03
  20   1     0.04   0.20  -0.05    -0.18  -0.02  -0.24     0.05   0.17  -0.05
  21   1     0.02  -0.06  -0.01     0.01   0.00   0.01    -0.16  -0.11   0.13
                      7                      8                      9
                        a                      a                      a 
 Frequencies --   236.1669               273.5997               315.1295
 Red. masses --     2.0384                 6.0820                11.0683
 Frc consts  --     0.0000                 0.0000                 0.0000
 IR Inten    --     0.6142                 0.0237                 0.4985
 Raman Activ --     0.0000                 0.0000                 0.0000
 Depolar     --     0.0000                 0.0000                 0.0000
 Atom AN      X      Y      Z        X      Y      Z        X      Y      Z
   1   6    -0.02  -0.00  -0.03     0.03   0.00   0.03     0.01   0.00   0.01
   2   8    -0.03  -0.00  -0.04     0.13   0.02   0.18     0.17   0.02   0.23
   3   6    -0.05  -0.01  -0.06    -0.03  -0.00  -0.04    -0.22  -0.03  -0.29
   4   6    -0.02  -0.00  -0.03     0.01   0.00   0.01    -0.31  -0.04  -0.42
   5   6    -0.04  -0.00  -0.05     0.04   0.01   0.06    -0.23  -0.03  -0.32
   6   6     0.05   0.01   0.07     0.22   0.03   0.30    -0.02  -0.00  -0.02
   7   6     0.12   0.02   0.17    -0.01  -0.00  -0.01     0.16   0.02   0.22
   8   6     0.00   0.00   0.01    -0.23  -0.03  -0.31    -0.03  -0.00  -0.04
   9   8    -0.07  -0.01  -0.09    -0.15  -0.02  -0.20     0.16   0.02   0.21
  10   6    -0.02  -0.00  -0.03    -0.02  -0.00  -0.03     0.01   0.00   0.01
  11   8     0.05   0.01   0.06     0.01   0.00   0.01     0.14   0.02   0.19
  12   1     0.23   0.03   0.31    -0.19  -0.02  -0.26    -0.04  -0.01  -0.06
  13   1    -0.22  -0.31  -0.05     0.20   0.24   0.02     0.06   0.03  -0.03
  14   1    -0.01   0.28  -0.26    -0.02  -0.22   0.22    -0.04  -0.02   0.05
  15   1     0.01   0.00   0.01     0.11   0.01   0.15     0.06   0.01   0.08
  16   1     0.06   0.01   0.08    -0.00  -0.00  -0.01     0.14   0.02   0.19
  17   1    -0.02  -0.00  -0.02    -0.11  -0.01  -0.15     0.06   0.01   0.08
  18   1    -0.25   0.29  -0.09    -0.18   0.18  -0.04     0.05  -0.02  -0.02
  19   1     0.02  -0.32  -0.23     0.03  -0.20  -0.16    -0.04   0.03   0.04
  20   1     0.24   0.03   0.32     0.16   0.02   0.22    -0.04  -0.00  -0.05
  21   1     0.01   0.00   0.02    -0.00   0.00  -0.00     0.14   0.02   0.19
                     10                     11                     12
                        a                      a                      a 
 Frequencies --   330.5956               356.0518               455.3110
 Red. masses --    10.9674                11.5313                 2.5178
 Frc consts  --     0.0000                 0.0000                 0.0000
 IR Inten    --     3.1972                 0.2628               178.6541
 Raman Activ --     0.0000                 0.0000                 0.0000
 Depolar     --     0.0000                 0.0000                 0.0000
 Atom AN      X      Y      Z        X      Y      Z        X      Y      Z
   1   6    -0.29  -0.20   0.23    -0.36  -0.04   0.27     0.00  -0.00   0.00
   2   8    -0.14   0.20   0.09    -0.28   0.17   0.19    -0.02  -0.00  -0.03
   3   6    -0.04   0.07   0.02    -0.09  -0.02   0.07     0.05   0.01   0.06
   4   6    -0.05  -0.01   0.04     0.00   0.00  -0.00     0.02   0.00   0.02
   5   6    -0.03  -0.06   0.03     0.10  -0.04  -0.07     0.04   0.01   0.06
   6   6     0.18  -0.09  -0.13     0.01  -0.03  -0.00     0.03   0.00   0.04
   7   6     0.23  -0.00  -0.17    -0.01  -0.07   0.01    -0.05  -0.01  -0.07
   8   6     0.18   0.08  -0.14    -0.03  -0.03   0.03     0.04   0.01   0.06
   9   8    -0.10  -0.16   0.09     0.31   0.17  -0.24    -0.05  -0.01  -0.07
  10   6    -0.23   0.17   0.16     0.41  -0.07  -0.30    -0.01  -0.00  -0.01
  11   8     0.35  -0.03  -0.26    -0.05  -0.01   0.04    -0.16  -0.02  -0.21
  12   1    -0.01  -0.14   0.02    -0.06  -0.07   0.05     0.01   0.00   0.01
  13   1    -0.14  -0.07   0.11    -0.14  -0.02   0.11    -0.01  -0.00   0.01
  14   1    -0.14  -0.07   0.11    -0.14  -0.02   0.11     0.01   0.00  -0.01
  15   1     0.06  -0.05  -0.04     0.00  -0.00   0.00    -0.01  -0.00  -0.01
  16   1     0.08  -0.00  -0.06    -0.00  -0.02   0.00    -0.04  -0.01  -0.06
  17   1     0.06   0.04  -0.05    -0.01  -0.01   0.01     0.01   0.00   0.02
  18   1    -0.11   0.06   0.08     0.16  -0.03  -0.11    -0.01   0.00   0.00
  19   1    -0.11   0.06   0.08     0.16  -0.03  -0.11     0.01  -0.00  -0.01
  20   1    -0.01   0.11  -0.00     0.07  -0.08  -0.04     0.00   0.00   0.01
  21   1     0.11   0.10  -0.09    -0.02  -0.02   0.01     0.56   0.07   0.75
                     13                     14                     15
                        a                      a                      a 
 Frequencies --   468.5479               504.7485               510.7807
 Red. masses --    13.1089                12.5251                10.4285
 Frc consts  --     0.0000                 0.0000                 0.0000
 IR Inten    --     1.0716                 7.0623                 3.1169
 Raman Activ --     0.0000                 0.0000                 0.0000
 Depolar     --     0.0000                 0.0000                 0.0000
 Atom AN      X      Y      Z        X      Y      Z        X      Y      Z
   1   6    -0.00  -0.06   0.01     0.05  -0.00  -0.04     0.01   0.00   0.01
   2   8     0.13   0.31  -0.12     0.14   0.27  -0.13     0.04   0.00   0.05
   3   6     0.18   0.06  -0.14     0.04   0.25  -0.06    -0.03  -0.00  -0.04
   4   6     0.00  -0.36   0.03     0.01   0.03  -0.01     0.28   0.03   0.38
   5   6    -0.18   0.01   0.13     0.09  -0.26  -0.04    -0.04  -0.00  -0.05
   6   6    -0.16   0.04   0.12    -0.27  -0.23   0.22    -0.23  -0.03  -0.31
   7   6    -0.03   0.32  -0.01    -0.21  -0.02   0.15     0.30   0.04   0.40
   8   6     0.10   0.09  -0.08    -0.30   0.25   0.20    -0.23  -0.03  -0.31
   9   8    -0.11   0.29   0.05     0.18  -0.36  -0.10     0.04   0.01   0.06
  10   6     0.03  -0.06  -0.02     0.04   0.01  -0.03     0.01   0.00   0.01
  11   8     0.02  -0.53   0.03     0.18   0.03  -0.14    -0.12  -0.02  -0.17
  12   1     0.07  -0.10  -0.04     0.06  -0.06  -0.04    -0.02  -0.00  -0.02
  13   1    -0.06  -0.03   0.04    -0.02  -0.01   0.02     0.02   0.02   0.00
  14   1    -0.05  -0.03   0.04    -0.02  -0.01   0.02    -0.00  -0.02   0.02
  15   1    -0.01  -0.06   0.01    -0.10  -0.02   0.07    -0.12  -0.02  -0.17
  16   1     0.00   0.09  -0.01     0.02  -0.01  -0.01     0.16   0.02   0.21
  17   1    -0.01  -0.05   0.01    -0.10   0.04   0.07    -0.12  -0.01  -0.16
  18   1     0.06  -0.03  -0.04    -0.04   0.02   0.03     0.02  -0.01   0.00
  19   1     0.06  -0.04  -0.04    -0.04   0.02   0.03    -0.01   0.02   0.02
  20   1    -0.06  -0.09   0.05     0.07   0.07  -0.06    -0.02  -0.00  -0.02
  21   1     0.01  -0.11   0.00     0.06   0.08  -0.05     0.04   0.01   0.06
                     16                     17                     18
                        a                      a                      a 
 Frequencies --   563.6708               596.7952               658.6939
 Red. masses --    11.6191                10.5830                11.9098
 Frc consts  --     0.0000                 0.0000                 0.0000
 IR Inten    --     0.0319                10.6232                 1.5316
 Raman Activ --     0.0000                 0.0000                 0.0000
 Depolar     --     0.0000                 0.0000                 0.0000
 Atom AN      X      Y      Z        X      Y      Z        X      Y      Z
   1   6     0.01   0.00   0.02    -0.14   0.05   0.10     0.00   0.00   0.01
   2   8     0.10   0.01   0.14     0.00   0.30  -0.03     0.04   0.01   0.06
   3   6    -0.37  -0.05  -0.51     0.22  -0.18  -0.15    -0.30  -0.04  -0.40
   4   6    -0.02  -0.00  -0.02     0.28  -0.01  -0.21     0.34   0.04   0.46
   5   6     0.39   0.05   0.53     0.21   0.17  -0.17    -0.26  -0.03  -0.35
   6   6    -0.10  -0.01  -0.14     0.00   0.29  -0.03     0.15   0.02   0.20
   7   6     0.01   0.00   0.01    -0.16   0.02   0.11    -0.14  -0.02  -0.20
   8   6     0.08   0.01   0.11     0.03  -0.28   0.00     0.15   0.02   0.21
   9   8    -0.10  -0.01  -0.13     0.01  -0.29   0.02     0.03   0.00   0.05
  10   6    -0.01  -0.00  -0.02    -0.14  -0.04   0.11     0.00   0.00   0.00
  11   8     0.01   0.00   0.01    -0.13   0.01   0.10    -0.05  -0.01  -0.07
  12   1    -0.01  -0.00  -0.01     0.04  -0.08  -0.02    -0.00  -0.00  -0.00
  13   1     0.02  -0.00  -0.01    -0.10  -0.01   0.07     0.01  -0.00  -0.01
  14   1    -0.02   0.00   0.01    -0.10  -0.01   0.08    -0.01   0.00   0.00
  15   1    -0.10  -0.01  -0.13    -0.04   0.18   0.02     0.04   0.01   0.06
  16   1     0.01   0.00   0.01    -0.12   0.01   0.09     0.00  -0.00   0.00
  17   1     0.10   0.01   0.13    -0.04  -0.17   0.04     0.06   0.01   0.08
  18   1    -0.02  -0.00   0.02    -0.10   0.01   0.07     0.01   0.00  -0.01
  19   1     0.02   0.00  -0.02    -0.10   0.01   0.07    -0.01  -0.00   0.00
  20   1     0.01   0.00   0.01     0.03   0.07  -0.03    -0.00  -0.00  -0.00
  21   1    -0.00  -0.00  -0.00    -0.07  -0.15   0.07    -0.01  -0.00  -0.01
                     19                     20                     21
                        a                      a                      a 
 Frequencies --   718.5055               781.7593               817.9999
 Red. masses --    12.3286                 3.0852                11.8631
 Frc consts  --     0.0000                 0.0000                 0.0000
 IR Inten    --    21.4773                46.2844                17.9266
 Raman Activ --     0.0000                 0.0000                 0.0000
 Depolar     --     0.0000                 0.0000                 0.0000
 Atom AN      X      Y      Z        X      Y      Z        X      Y      Z
   1   6    -0.06  -0.01   0.04     0.00   0.00   0.00     0.00  -0.01  -0.00
   2   8    -0.15  -0.37   0.15     0.02   0.00   0.03    -0.01  -0.04   0.01
   3   6    -0.07   0.00   0.05    -0.07  -0.01  -0.09    -0.11   0.17   0.06
   4   6    -0.01  -0.08   0.01    -0.07  -0.01  -0.09     0.01  -0.04  -0.01
   5   6     0.05   0.01  -0.04    -0.06  -0.01  -0.08     0.12   0.16  -0.10
   6   6    -0.10   0.21   0.05     0.13   0.02   0.18     0.30   0.27  -0.25
   7   6    -0.01   0.60  -0.05     0.14   0.02   0.18     0.01  -0.27   0.02
   8   6     0.10   0.19  -0.09     0.13   0.02   0.17    -0.32   0.30   0.21
   9   8     0.17  -0.38  -0.09     0.02   0.00   0.03    -0.01  -0.01   0.01
  10   6     0.07  -0.01  -0.05     0.00   0.00   0.00    -0.02  -0.02   0.02
  11   8     0.01  -0.16   0.01     0.02   0.00   0.02     0.02  -0.50   0.03
  12   1    -0.11   0.11   0.07    -0.02  -0.00  -0.02    -0.03   0.03   0.02
  13   1     0.06   0.02  -0.04     0.01   0.01   0.00     0.03   0.00  -0.02
  14   1     0.05   0.02  -0.04     0.00  -0.01   0.01     0.02   0.00  -0.02
  15   1    -0.01   0.03   0.00    -0.32  -0.04  -0.44     0.03   0.19  -0.04
  16   1    -0.00   0.17  -0.01    -0.29  -0.04  -0.39     0.01  -0.07   0.00
  17   1     0.01   0.04  -0.01    -0.31  -0.04  -0.42    -0.04   0.20   0.01
  18   1    -0.06   0.02   0.04     0.01  -0.01   0.01    -0.02   0.00   0.02
  19   1    -0.05   0.02   0.04     0.00   0.01   0.01    -0.02   0.00   0.02
  20   1     0.11   0.10  -0.09    -0.01  -0.00  -0.02     0.01   0.02  -0.01
  21   1     0.00  -0.04   0.00    -0.00  -0.00  -0.01     0.00  -0.12   0.01
                     22                     23                     24
                        a                      a                      a 
 Frequencies --   845.8300               897.9636               907.2778
 Red. masses --     3.7877                 3.0944                10.7705
 Frc consts  --     0.0000                 0.0000                 0.0000
 IR Inten    --     0.0031                 0.2615                50.5853
 Raman Activ --     0.0000                 0.0000                 0.0000
 Depolar     --     0.0000                 0.0000                 0.0000
 Atom AN      X      Y      Z        X      Y      Z        X      Y      Z
   1   6     0.00   0.00   0.00    -0.00   0.00  -0.00     0.23  -0.07  -0.16
   2   8    -0.01  -0.00  -0.02     0.00  -0.00   0.00     0.04   0.28  -0.05
   3   6     0.04   0.00   0.06     0.04   0.00   0.05    -0.21  -0.04   0.16
   4   6     0.00   0.00   0.00    -0.05  -0.01  -0.07    -0.31  -0.01   0.23
   5   6    -0.04  -0.00  -0.05     0.04   0.00   0.05    -0.25   0.09   0.18
   6   6     0.21   0.02   0.28     0.08   0.01   0.11     0.11   0.26  -0.10
   7   6    -0.01  -0.00  -0.01    -0.21  -0.03  -0.29    -0.03  -0.03   0.02
   8   6    -0.21  -0.03  -0.28     0.09   0.01   0.13     0.09  -0.24  -0.04
   9   8     0.01   0.00   0.01     0.00   0.00   0.00     0.05  -0.29  -0.01
  10   6    -0.00  -0.00  -0.00    -0.00  -0.00  -0.00     0.23   0.05  -0.17
  11   8     0.00   0.00   0.00     0.00   0.00   0.00    -0.02  -0.05   0.02
  12   1     0.01   0.00   0.02    -0.01  -0.00  -0.01     0.14  -0.11  -0.09
  13   1    -0.00  -0.01  -0.01    -0.00   0.01   0.01    -0.00  -0.03   0.00
  14   1    -0.01   0.01  -0.00     0.01  -0.01  -0.00    -0.00  -0.03   0.00
  15   1    -0.36  -0.04  -0.49    -0.20  -0.03  -0.27     0.03   0.07  -0.03
  16   1     0.01   0.00   0.02     0.44   0.05   0.60    -0.16  -0.00   0.12
  17   1     0.36   0.04   0.49    -0.22  -0.03  -0.29     0.03  -0.06  -0.02
  18   1     0.00  -0.01   0.01    -0.00  -0.00   0.01    -0.01   0.03   0.00
  19   1     0.01   0.01   0.00     0.01   0.00  -0.00    -0.01   0.03   0.00
  20   1    -0.01  -0.00  -0.02    -0.01  -0.00  -0.01     0.14   0.10  -0.11
  21   1    -0.01  -0.00  -0.01     0.00  -0.00   0.00     0.05   0.19  -0.05
                     25                     26                     27
                        a                      a                      a 
 Frequencies --  1060.9991              1104.1782              1120.0969
 Red. masses --    12.2015                11.1273                 6.6427
 Frc consts  --     0.0000                 0.0000                 0.0000
 IR Inten    --    13.8549               197.4809                 9.2656
 Raman Activ --     0.0000                 0.0000                 0.0000
 Depolar     --     0.0000                 0.0000                 0.0000
 Atom AN      X      Y      Z        X      Y      Z        X      Y      Z
   1   6     0.36  -0.15  -0.25    -0.25   0.08   0.18    -0.08  -0.13   0.05
   2   8    -0.33   0.21   0.23     0.32  -0.07  -0.23     0.08   0.09  -0.06
   3   6    -0.21  -0.07   0.16    -0.04   0.09   0.02    -0.10   0.09   0.07
   4   6     0.00   0.10  -0.01    -0.14  -0.01   0.11    -0.02   0.14  -0.00
   5   6     0.21  -0.08  -0.15    -0.04  -0.09   0.04     0.11   0.05  -0.08
   6   6    -0.05  -0.03   0.04     0.05   0.10  -0.05    -0.29  -0.03   0.22
   7   6    -0.00   0.11  -0.01    -0.03   0.00   0.02     0.00  -0.22   0.02
   8   6     0.05  -0.03  -0.03     0.05  -0.10  -0.03     0.31  -0.06  -0.22
   9   8     0.26   0.15  -0.21     0.40   0.05  -0.30    -0.07   0.09   0.05
  10   6    -0.30  -0.09   0.23    -0.31  -0.07   0.24     0.07  -0.12  -0.04
  11   8     0.01  -0.08  -0.00    -0.04  -0.05   0.04     0.00  -0.15   0.01
  12   1     0.16  -0.12  -0.10    -0.12   0.09   0.08    -0.13   0.11   0.10
  13   1     0.00  -0.04   0.01     0.03   0.03  -0.03     0.11   0.04  -0.05
  14   1    -0.00  -0.04   0.00     0.03   0.03  -0.03     0.11   0.02  -0.10
  15   1    -0.04   0.04   0.02     0.02   0.03  -0.01    -0.25   0.33   0.16
  16   1     0.00   0.03  -0.01    -0.20   0.01   0.14    -0.01  -0.07   0.02
  17   1     0.04   0.05  -0.03     0.01  -0.03  -0.01     0.23   0.28  -0.19
  18   1     0.01  -0.04  -0.00     0.04  -0.04  -0.02    -0.10   0.03   0.05
  19   1     0.01  -0.04  -0.00     0.04  -0.05  -0.03    -0.08   0.03   0.08
  20   1    -0.14  -0.10   0.11    -0.15  -0.11   0.12     0.11   0.08  -0.09
  21   1    -0.01  -0.06   0.01     0.06   0.27  -0.07     0.01   0.01  -0.01
                     28                     29                     30
                        a                      a                      a 
 Frequencies --  1122.6755              1125.5149              1152.1893
 Red. masses --     3.7316                 3.7212                 5.7893
 Frc consts  --     0.0000                 0.0000                 0.0000
 IR Inten    --     2.1087                 2.2526                20.6255
 Raman Activ --     0.0000                 0.0000                 0.0000
 Depolar     --     0.0000                 0.0000                 0.0000
 Atom AN      X      Y      Z        X      Y      Z        X      Y      Z
   1   6    -0.25  -0.03  -0.34     0.00   0.00   0.01    -0.01   0.34  -0.02
   2   8     0.13   0.01   0.18    -0.00  -0.00  -0.00     0.08  -0.26  -0.04
   3   6     0.00  -0.00  -0.00     0.00  -0.00  -0.00     0.00  -0.09   0.01
   4   6    -0.00  -0.00   0.00     0.00  -0.00   0.00    -0.10   0.03   0.07
   5   6    -0.00  -0.00   0.00    -0.00   0.00  -0.00     0.05   0.07  -0.05
   6   6     0.01   0.00  -0.01    -0.00  -0.00  -0.00    -0.02  -0.06   0.02
   7   6     0.00   0.01   0.00     0.00   0.00   0.00     0.01   0.01  -0.01
   8   6    -0.01   0.00   0.00    -0.00   0.00   0.00     0.01   0.06  -0.01
   9   8     0.00  -0.00   0.00     0.13   0.02   0.18     0.06   0.22  -0.06
  10   6    -0.01   0.00  -0.00    -0.25  -0.03  -0.34    -0.01  -0.27   0.03
  11   8    -0.00   0.00   0.00    -0.00   0.00  -0.00    -0.06  -0.08   0.05
  12   1     0.14   0.01   0.17    -0.00  -0.00  -0.00     0.28  -0.24  -0.18
  13   1    -0.31   0.30   0.42     0.00  -0.01  -0.01    -0.23  -0.03   0.13
  14   1     0.51  -0.28  -0.14    -0.01   0.00   0.00    -0.19  -0.02   0.18
  15   1     0.01  -0.01  -0.00     0.01  -0.00   0.01    -0.05   0.08   0.03
  16   1    -0.00   0.00  -0.00    -0.00   0.00  -0.00     0.17  -0.00  -0.12
  17   1     0.00  -0.01   0.02    -0.00  -0.00   0.00    -0.02  -0.02   0.01
  18   1    -0.00  -0.01   0.01    -0.30  -0.25   0.46    -0.19   0.03   0.10
  19   1     0.01   0.00  -0.01     0.50   0.27  -0.18    -0.16   0.04   0.15
  20   1    -0.00  -0.00   0.01     0.13   0.02   0.18     0.20   0.17  -0.16
  21   1    -0.00   0.00  -0.00     0.00   0.00   0.00     0.05   0.24  -0.06
                     31                     32                     33
                        a                      a                      a 
 Frequencies --  1161.8951              1180.7868              1198.0135
 Red. masses --     7.2563                 4.1118                 9.0944
 Frc consts  --     0.0000                 0.0000                 0.0000
 IR Inten    --    23.5305               208.0217                27.6120
 Raman Activ --     0.0000                 0.0000                 0.0000
 Depolar     --     0.0000                 0.0000                 0.0000
 Atom AN      X      Y      Z        X      Y      Z        X      Y      Z
   1   6    -0.05   0.27   0.01     0.05  -0.12  -0.02     0.05   0.03  -0.04
   2   8     0.14  -0.18  -0.09    -0.11   0.05   0.08    -0.12  -0.09   0.10
   3   6    -0.14  -0.02   0.11     0.16  -0.02  -0.12     0.20   0.00  -0.14
   4   6    -0.01   0.22  -0.02    -0.12   0.01   0.09     0.02  -0.42   0.02
   5   6     0.13  -0.07  -0.09     0.19  -0.03  -0.14    -0.29   0.09   0.21
   6   6    -0.08   0.00   0.06     0.07  -0.05  -0.05    -0.07   0.18   0.04
   7   6    -0.00   0.04  -0.00    -0.02   0.03   0.01     0.05  -0.20  -0.02
   8   6     0.09  -0.03  -0.06     0.03   0.04  -0.03     0.01   0.12  -0.02
   9   8    -0.15  -0.24   0.13    -0.12  -0.04   0.09     0.19  -0.14  -0.13
  10   6     0.05   0.34  -0.06     0.04   0.13  -0.04    -0.08   0.05   0.05
  11   8     0.02  -0.15  -0.00    -0.12  -0.12   0.10     0.00   0.28  -0.03
  12   1     0.21  -0.18  -0.14    -0.10   0.10   0.07     0.07  -0.06  -0.05
  13   1    -0.16  -0.01   0.09     0.06  -0.00  -0.04    -0.05  -0.01   0.04
  14   1    -0.13  -0.01   0.13     0.05  -0.00  -0.04    -0.05  -0.01   0.04
  15   1    -0.08   0.13   0.05    -0.15   0.33   0.08    -0.17   0.35   0.10
  16   1    -0.04   0.01   0.03     0.23   0.00  -0.17     0.20  -0.06  -0.14
  17   1     0.09   0.13  -0.08    -0.16  -0.35   0.15     0.08   0.19  -0.08
  18   1     0.21  -0.03  -0.12     0.06  -0.00  -0.03     0.07  -0.02  -0.05
  19   1     0.18  -0.03  -0.17     0.05  -0.00  -0.05     0.07  -0.02  -0.05
  20   1    -0.25  -0.21   0.21    -0.11  -0.10   0.09    -0.09  -0.08   0.08
  21   1    -0.00  -0.06   0.01     0.11   0.51  -0.12    -0.02  -0.05   0.02
                     34                     35                     36
                        a                      a                      a 
 Frequencies --  1217.8936              1255.2702              1323.7280
 Red. masses --     5.4557                 4.6215                 9.9117
 Frc consts  --     0.0000                 0.0000                 0.0000
 IR Inten    --   197.1984                54.1924               148.8317
 Raman Activ --     0.0000                 0.0000                 0.0000
 Depolar     --     0.0000                 0.0000                 0.0000
 Atom AN      X      Y      Z        X      Y      Z        X      Y      Z
   1   6     0.08  -0.01  -0.06     0.03   0.06  -0.03     0.09   0.02  -0.07
   2   8    -0.21  -0.10   0.16    -0.02  -0.12   0.03    -0.14  -0.15   0.12
   3   6     0.27   0.06  -0.21    -0.01   0.27  -0.01     0.11   0.38  -0.11
   4   6     0.02  -0.16   0.00    -0.14  -0.02   0.11     0.02   0.25  -0.04
   5   6     0.11  -0.06  -0.08    -0.00  -0.27   0.03    -0.12   0.34   0.06
   6   6     0.07  -0.09  -0.04     0.12  -0.08  -0.08    -0.21   0.06   0.15
   7   6    -0.12  -0.05   0.09     0.05   0.00  -0.04     0.02  -0.32   0.01
   8   6     0.07   0.19  -0.07     0.10   0.07  -0.08     0.20   0.04  -0.15
   9   8    -0.09   0.03   0.07    -0.03   0.12   0.01     0.11  -0.14  -0.07
  10   6     0.04   0.02  -0.03     0.03  -0.07  -0.02    -0.07   0.02   0.05
  11   8    -0.08   0.03   0.05     0.11   0.11  -0.09     0.00  -0.21   0.02
  12   1     0.05  -0.04  -0.03     0.01   0.00  -0.01    -0.03   0.05   0.02
  13   1    -0.04  -0.01   0.04    -0.05  -0.02   0.02    -0.09  -0.03   0.05
  14   1    -0.05  -0.01   0.03    -0.03  -0.02   0.05    -0.08  -0.03   0.07
  15   1     0.05  -0.09  -0.03    -0.17   0.39   0.09     0.08  -0.28  -0.03
  16   1    -0.51  -0.00   0.37    -0.29   0.01   0.21    -0.01  -0.10   0.01
  17   1     0.12   0.26  -0.11    -0.16  -0.38   0.15    -0.08  -0.30   0.09
  18   1    -0.01   0.00   0.01    -0.05   0.03   0.01     0.07  -0.03  -0.04
  19   1    -0.02   0.00   0.01    -0.03   0.03   0.04     0.06  -0.03  -0.05
  20   1    -0.00  -0.00   0.00     0.03   0.01  -0.02     0.02   0.04  -0.02
  21   1     0.06   0.32  -0.08    -0.08  -0.39   0.09     0.01  -0.02  -0.00
                     37                     38                     39
                        a                      a                      a 
 Frequencies --  1362.9508              1401.6429              1404.8935
 Red. masses --    11.0455                 2.5355                 2.6255
 Frc consts  --     0.0000                 0.0000                 0.0000
 IR Inten    --    30.7938                 0.9488                 0.0441
 Raman Activ --     0.0000                 0.0000                 0.0000
 Depolar     --     0.0000                 0.0000                 0.0000
 Atom AN      X      Y      Z        X      Y      Z        X      Y      Z
   1   6    -0.03  -0.02   0.02    -0.23   0.11   0.16    -0.08   0.04   0.06
   2   8     0.07   0.05  -0.05    -0.09   0.02   0.07    -0.04  -0.01   0.03
   3   6     0.12  -0.32  -0.06     0.01   0.03  -0.01     0.01   0.05  -0.01
   4   6    -0.37   0.04   0.27     0.04  -0.00  -0.03    -0.03  -0.01   0.02
   5   6     0.10   0.34  -0.10    -0.01   0.04   0.00    -0.01   0.08   0.00
   6   6     0.15  -0.28  -0.08    -0.02  -0.02   0.02    -0.03   0.03   0.02
   7   6    -0.34  -0.01   0.25     0.03  -0.04  -0.02    -0.03  -0.06   0.03
   8   6     0.16   0.27  -0.14     0.02   0.06  -0.02     0.04   0.02  -0.03
   9   8     0.07  -0.07  -0.04    -0.02  -0.02   0.02     0.09   0.00  -0.07
  10   6    -0.05   0.02   0.03    -0.09  -0.03   0.07     0.23   0.10  -0.18
  11   8     0.06   0.04  -0.05    -0.01  -0.01   0.01     0.01  -0.00  -0.01
  12   1    -0.03   0.02   0.02     0.31  -0.37  -0.19     0.11  -0.13  -0.07
  13   1     0.02   0.00  -0.01     0.30  -0.10  -0.38     0.10  -0.04  -0.13
  14   1     0.02   0.00  -0.02     0.45  -0.08  -0.17     0.16  -0.03  -0.05
  15   1     0.02  -0.05  -0.01    -0.02   0.01   0.01     0.04  -0.09  -0.02
  16   1     0.06  -0.01  -0.04    -0.04  -0.01   0.03     0.02  -0.02  -0.01
  17   1     0.02   0.02  -0.01    -0.04  -0.09   0.04    -0.01  -0.05   0.02
  18   1     0.04  -0.00  -0.04     0.11   0.01  -0.14    -0.29  -0.05   0.39
  19   1     0.05  -0.00  -0.03     0.16   0.02  -0.07    -0.45  -0.07   0.18
  20   1    -0.00   0.01   0.00     0.11   0.13  -0.09    -0.30  -0.35   0.25
  21   1    -0.06  -0.27   0.07     0.01   0.03  -0.01    -0.01  -0.04   0.01
                     40                     41                     42
                        a                      a                      a 
 Frequencies --  1467.2517              1469.9146              1472.1495
 Red. masses --    10.1022                 1.5544                 1.5549
 Frc consts  --     0.0000                 0.0000                 0.0000
 IR Inten    --   203.7625                 4.8363                 5.5099
 Raman Activ --     0.0000                 0.0000                 0.0000
 Depolar     --     0.0000                 0.0000                 0.0000
 Atom AN      X      Y      Z        X      Y      Z        X      Y      Z
   1   6     0.01  -0.02  -0.01    -0.00  -0.00  -0.00     0.13   0.02   0.18
   2   8     0.03   0.08  -0.03     0.00   0.00  -0.00     0.02   0.00   0.02
   3   6    -0.05  -0.39   0.07    -0.00  -0.01   0.00     0.00  -0.00   0.00
   4   6     0.21   0.20  -0.18     0.00   0.00  -0.00     0.00   0.00  -0.00
   5   6    -0.27   0.29   0.17    -0.00   0.01   0.00    -0.00   0.00   0.00
   6   6    -0.01  -0.33   0.04    -0.00  -0.01  -0.00    -0.00  -0.00   0.00
   7   6     0.26   0.03  -0.20     0.00   0.00  -0.00     0.00  -0.00  -0.00
   8   6    -0.10   0.27   0.05    -0.00   0.00   0.00    -0.00   0.00  -0.00
   9   8     0.09  -0.08  -0.06     0.02   0.00   0.02     0.00  -0.00  -0.00
  10   6     0.02  -0.01  -0.02     0.13   0.02   0.18     0.00   0.00   0.00
  11   8    -0.04  -0.10   0.04    -0.00  -0.00   0.00    -0.00  -0.00   0.00
  12   1    -0.03   0.04   0.03     0.01   0.00   0.01    -0.42  -0.05  -0.57
  13   1    -0.01  -0.01   0.01     0.01   0.00  -0.00    -0.37  -0.22   0.18
  14   1    -0.02  -0.01   0.01    -0.00  -0.00   0.01     0.26   0.21  -0.32
  15   1    -0.14   0.17   0.09     0.01   0.00   0.02    -0.00   0.00   0.00
  16   1    -0.24   0.02   0.18    -0.01   0.00   0.00    -0.00  -0.00   0.00
  17   1    -0.10  -0.06   0.08    -0.00  -0.00   0.00     0.01   0.00   0.02
  18   1    -0.03   0.03  -0.00    -0.38   0.23   0.15    -0.01   0.00   0.00
  19   1    -0.02   0.05   0.04     0.27  -0.25  -0.29     0.00  -0.00  -0.00
  20   1    -0.03  -0.05   0.05    -0.43  -0.05  -0.57    -0.01  -0.00  -0.01
  21   1     0.02   0.09  -0.02    -0.00   0.00  -0.00    -0.00   0.00  -0.00
                     43                     44                     45
                        a                      a                      a 
 Frequencies --  1483.7610              1485.4677              1492.7591
 Red. masses --     3.9316                 1.7725                 8.7993
 Frc consts  --     0.0000                 0.0000                 0.0000
 IR Inten    --    85.4037                10.1777               129.2926
 Raman Activ --     0.0000                 0.0000                 0.0000
 Depolar     --     0.0000                 0.0000                 0.0000
 Atom AN      X      Y      Z        X      Y      Z        X      Y      Z
   1   6     0.05   0.17  -0.05    -0.02  -0.09   0.02     0.01   0.06  -0.01
   2   8     0.06   0.07  -0.05     0.02  -0.01  -0.02    -0.10  -0.00   0.08
   3   6    -0.18  -0.04   0.14    -0.05  -0.03   0.04     0.31  -0.02  -0.23
   4   6     0.04  -0.28  -0.01     0.01  -0.07  -0.00    -0.06   0.49  -0.00
   5   6     0.13   0.08  -0.10     0.02   0.03  -0.02    -0.24  -0.21   0.19
   6   6    -0.07   0.01   0.05    -0.02  -0.03   0.02     0.14  -0.04  -0.10
   7   6     0.05  -0.05  -0.03     0.05  -0.01  -0.04    -0.09   0.13   0.06
   8   6     0.03   0.10  -0.03     0.00   0.05  -0.01    -0.08  -0.19   0.07
   9   8    -0.04   0.01   0.03    -0.01   0.04   0.00     0.06   0.04  -0.05
  10   6    -0.02   0.08   0.01    -0.05   0.18   0.02    -0.01   0.04   0.01
  11   8    -0.01   0.10   0.00    -0.00   0.03   0.00     0.02  -0.16  -0.00
  12   1    -0.15   0.19   0.09     0.07  -0.09  -0.04    -0.05   0.06   0.03
  13   1    -0.19  -0.46  -0.19     0.09   0.25   0.12    -0.06  -0.21  -0.11
  14   1     0.16  -0.41   0.29    -0.11   0.23  -0.15     0.11  -0.19   0.11
  15   1     0.00  -0.03   0.00    -0.03   0.05   0.02    -0.03   0.14   0.01
  16   1    -0.04  -0.01   0.03    -0.04  -0.00   0.03     0.06   0.04  -0.05
  17   1    -0.02  -0.04   0.02    -0.03  -0.05   0.03     0.09   0.18  -0.08
  18   1     0.09  -0.17   0.11     0.21  -0.45   0.29     0.06  -0.16   0.12
  19   1    -0.06  -0.19  -0.10    -0.18  -0.50  -0.23    -0.08  -0.18  -0.07
  20   1     0.05   0.07  -0.05     0.14   0.18  -0.12     0.06   0.07  -0.05
  21   1     0.00   0.04  -0.01     0.00   0.01  -0.00    -0.01  -0.06   0.01
                     46                     47                     48
                        a                      a                      a 
 Frequencies --  1579.6993              1594.1801              2921.6969
 Red. masses --    11.5716                11.5782                 1.9465
 Frc consts  --     0.0000                 0.0000                 0.0000
 IR Inten    --     1.1886                92.2426                44.7446
 Raman Activ --     0.0000                 0.0000                 0.0000
 Depolar     --     0.0000                 0.0000                 0.0000
 Atom AN      X      Y      Z        X      Y      Z        X      Y      Z
   1   6    -0.00  -0.02   0.00    -0.01  -0.01   0.01    -0.17  -0.02  -0.23
   2   8     0.02   0.05  -0.02    -0.01   0.01   0.01    -0.00  -0.00  -0.00
   3   6     0.06  -0.43  -0.01     0.25  -0.09  -0.18     0.00   0.00   0.00
   4   6    -0.04   0.19   0.01    -0.40   0.03   0.29    -0.00   0.00  -0.00
   5   6    -0.01  -0.45   0.05     0.22   0.14  -0.17    -0.00   0.00  -0.00
   6   6    -0.16   0.48   0.07    -0.23   0.10   0.16    -0.00   0.00  -0.00
   7   6     0.03  -0.23  -0.00     0.44   0.00  -0.33    -0.00  -0.00  -0.00
   8   6     0.11   0.43  -0.12    -0.25  -0.16   0.20     0.00   0.00   0.00
   9   8    -0.02   0.05   0.01     0.00  -0.02   0.00     0.00   0.00   0.00
  10   6     0.00  -0.02  -0.00    -0.01   0.01   0.01     0.00   0.00   0.00
  11   8     0.01   0.00  -0.01     0.04   0.01  -0.03     0.00  -0.00   0.00
  12   1    -0.01   0.01   0.01    -0.01   0.00   0.01    -0.03  -0.00  -0.04
  13   1     0.01   0.01   0.00     0.00  -0.01  -0.01     0.39  -0.36   0.41
  14   1    -0.00   0.00  -0.01     0.01  -0.01   0.00     0.25   0.44   0.45
  15   1     0.08  -0.11  -0.05    -0.02  -0.06   0.02     0.00  -0.00   0.00
  16   1    -0.00  -0.06   0.01    -0.10   0.01   0.08    -0.00  -0.00   0.00
  17   1    -0.07  -0.10   0.06    -0.01   0.08  -0.00     0.00   0.00   0.00
  18   1    -0.00   0.00  -0.00     0.00   0.00  -0.01    -0.00  -0.00  -0.00
  19   1     0.00   0.00   0.00     0.01   0.00  -0.00    -0.00   0.00  -0.00
  20   1     0.01   0.01  -0.01    -0.01  -0.01   0.01     0.00   0.00   0.00
  21   1    -0.00  -0.01   0.00    -0.02  -0.11   0.03    -0.00  -0.00  -0.00
                     49                     50                     51
                        a                      a                      a 
 Frequencies --  2934.8821              2937.3411              2949.1242
 Red. masses --     1.9483                 1.4475                 1.4501
 Frc consts  --     0.0000                 0.0000                 0.0000
 IR Inten    --    41.6203                37.1913                32.1772
 Raman Activ --     0.0000                 0.0000                 0.0000
 Depolar     --     0.0000                 0.0000                 0.0000
 Atom AN      X      Y      Z        X      Y      Z        X      Y      Z
   1   6    -0.00  -0.00  -0.00     0.02  -0.20   0.00     0.00  -0.00   0.00
   2   8     0.00  -0.00  -0.00     0.02  -0.01  -0.01     0.00  -0.00  -0.00
   3   6    -0.00  -0.00  -0.00    -0.00  -0.00   0.00     0.00  -0.00  -0.00
   4   6    -0.00   0.00  -0.00     0.00  -0.00  -0.00    -0.00  -0.00   0.00
   5   6     0.00   0.00   0.00    -0.00  -0.00   0.00     0.00  -0.00  -0.00
   6   6     0.00   0.00   0.00    -0.00   0.00   0.00     0.00   0.00  -0.00
   7   6    -0.00  -0.00  -0.00    -0.00   0.00  -0.00    -0.00   0.00  -0.00
   8   6    -0.00   0.00  -0.00    -0.00   0.00   0.00     0.00   0.00  -0.00
   9   8    -0.00  -0.00  -0.00     0.00   0.00  -0.00    -0.01  -0.01   0.01
  10   6    -0.17  -0.02  -0.23     0.00   0.00   0.00    -0.01  -0.20   0.03
  11   8     0.00  -0.00   0.00    -0.00   0.00   0.00     0.00  -0.00  -0.00
  12   1    -0.00  -0.00  -0.00     0.02   0.00  -0.01     0.00   0.00  -0.00
  13   1    -0.00  -0.00  -0.00    -0.42   0.32  -0.45    -0.01   0.01  -0.01
  14   1     0.00   0.01   0.01     0.27   0.41   0.49     0.00   0.01   0.01
  15   1     0.00   0.00   0.00     0.00   0.00  -0.00    -0.01  -0.01   0.01
  16   1    -0.00  -0.00   0.00    -0.00  -0.00   0.00     0.00  -0.00  -0.00
  17   1     0.00   0.00   0.00     0.01  -0.01  -0.01     0.00   0.00  -0.00
  18   1     0.37   0.44   0.36    -0.01  -0.01  -0.01     0.40   0.40   0.39
  19   1     0.27  -0.36   0.51     0.00  -0.00   0.01    -0.29   0.32  -0.54
  20   1    -0.03  -0.00  -0.04    -0.00   0.00   0.00    -0.02  -0.00   0.01
  21   1    -0.00  -0.00  -0.00     0.00   0.00  -0.00     0.00   0.00  -0.00
                     52                     53                     54
                        a                      a                      a 
 Frequencies --  3024.3842              3026.4779              3090.9284
 Red. masses --     1.6904                 1.6889                 1.7875
 Frc consts  --     0.0000                 0.0000                 0.0000
 IR Inten    --    20.3830                15.4309                14.2040
 Raman Activ --     0.0000                 0.0000                 0.0000
 Depolar     --     0.0000                 0.0000                 0.0000
 Atom AN      X      Y      Z        X      Y      Z        X      Y      Z
   1   6     0.01   0.01  -0.01    -0.13  -0.18   0.11    -0.00  -0.00   0.00
   2   8     0.00   0.00  -0.00    -0.01   0.00   0.01     0.00   0.00  -0.00
   3   6    -0.00  -0.00   0.00     0.00  -0.00  -0.00     0.00  -0.00  -0.00
   4   6    -0.00  -0.00   0.00     0.00  -0.00  -0.00     0.00   0.00  -0.00
   5   6    -0.00  -0.00   0.00     0.00  -0.00  -0.00    -0.00  -0.00   0.00
   6   6     0.00   0.00  -0.00    -0.00  -0.00   0.00    -0.04  -0.03   0.03
   7   6    -0.00  -0.00   0.00     0.00  -0.00  -0.00    -0.01   0.25  -0.02
   8   6     0.00  -0.00  -0.00    -0.00   0.00   0.00     0.04  -0.03  -0.03
   9   8     0.01  -0.00  -0.01     0.00   0.00  -0.00    -0.00   0.00   0.00
  10   6     0.14  -0.19  -0.08     0.01  -0.01  -0.01     0.00  -0.00  -0.00
  11   8     0.00   0.00  -0.00     0.00   0.00  -0.00    -0.00  -0.00   0.00
  12   1    -0.03  -0.04   0.03     0.51   0.70  -0.44     0.00   0.00  -0.00
  13   1     0.00   0.00  -0.00    -0.00  -0.04   0.03    -0.00   0.00  -0.00
  14   1     0.00   0.00  -0.00    -0.02  -0.04  -0.00     0.00   0.00   0.00
  15   1    -0.01  -0.00   0.00     0.00   0.00  -0.00     0.16   0.12  -0.13
  16   1    -0.00   0.00  -0.00    -0.00   0.00  -0.00     0.02  -0.90   0.06
  17   1    -0.00   0.00   0.00     0.01  -0.00  -0.00    -0.15   0.12   0.10
  18   1     0.01  -0.04  -0.02    -0.00  -0.00  -0.00     0.00   0.00   0.00
  19   1     0.02  -0.04   0.01     0.00  -0.00   0.00    -0.00   0.00  -0.00
  20   1    -0.53   0.73   0.33    -0.03   0.05   0.02    -0.00   0.00   0.00
  21   1    -0.00   0.00   0.00    -0.00  -0.00   0.00     0.00  -0.00  -0.00
                     55                     56                     57
                        a                      a                      a 
 Frequencies --  3112.0634              3117.3317              3486.8847
 Red. masses --     1.8305                 1.8733                 1.8626
 Frc consts  --     0.0000                 0.0000                 0.0000
 IR Inten    --    31.6611                24.8311                55.0316
 Raman Activ --     0.0000                 0.0000                 0.0000
 Depolar     --     0.0000                 0.0000                 0.0000
 Atom AN      X      Y      Z        X      Y      Z        X      Y      Z
   1   6     0.00   0.00  -0.00     0.00  -0.00   0.00     0.00  -0.00  -0.00
   2   8     0.00   0.00  -0.00     0.00  -0.00   0.00    -0.00  -0.00   0.00
   3   6    -0.00  -0.00   0.00     0.01   0.00  -0.00     0.00   0.00  -0.00
   4   6     0.00   0.00  -0.00    -0.00   0.00   0.00     0.00  -0.01  -0.00
   5   6    -0.01   0.00   0.00    -0.00   0.00   0.00    -0.00   0.00   0.00
   6   6    -0.15  -0.11   0.12    -0.10  -0.07   0.08     0.00  -0.00   0.00
   7   6    -0.00  -0.02   0.00     0.00  -0.10   0.01    -0.00   0.00   0.00
   8   6    -0.11   0.09   0.07     0.15  -0.12  -0.10     0.00  -0.00  -0.00
   9   8     0.00  -0.00  -0.00     0.00  -0.00   0.00     0.00  -0.00   0.00
  10   6     0.00  -0.00   0.00    -0.00  -0.00   0.00     0.00   0.00  -0.00
  11   8    -0.00  -0.00   0.00    -0.00  -0.00   0.00     0.19  -0.08  -0.13
  12   1    -0.00  -0.01   0.00     0.00   0.00  -0.00    -0.00  -0.00   0.00
  13   1     0.00  -0.00   0.00    -0.01   0.01  -0.01     0.00  -0.00  -0.00
  14   1    -0.00  -0.00  -0.00     0.00   0.01   0.01     0.00   0.00   0.00
  15   1     0.53   0.38  -0.43     0.34   0.24  -0.27     0.00   0.00  -0.00
  16   1    -0.00   0.07  -0.01    -0.01   0.31  -0.02    -0.00   0.00   0.00
  17   1     0.39  -0.30  -0.26    -0.53   0.40   0.36    -0.00   0.00   0.00
  18   1     0.01   0.01   0.01     0.00   0.00   0.00    -0.00  -0.00  -0.00
  19   1    -0.00   0.01  -0.01    -0.00   0.00  -0.00     0.00  -0.00   0.00
  20   1    -0.00   0.01   0.00    -0.00   0.00   0.00     0.00  -0.00  -0.00
  21   1     0.00   0.00  -0.00     0.00  -0.00  -0.00    -0.75   0.33   0.52
