 Entering Gaussian System
 *********************************************
 Gaussian 98:
 frequency output generated by the xtb code
 *********************************************
                         Standard orientation:
 --------------------------------------------------------------------
  Center     Atomic     Atomic              Coordinates (Angstroms)
  Number     Number      Type              X           Y           Z
 --------------------------------------------------------------------
    1          6             0       -1.942438    0.362272   -0.310034
    2          6             0       -1.704492   -0.841551    0.272973
    3          8             0       -0.396318   -0.988124    0.542346
    4          6             0        0.227370    0.139798    0.127119
    5          6             0       -0.682025    1.001994   -0.408973
    6          6             0        1.711012    0.221968    0.296391
    7          8             0        2.406349   -0.648480   -0.569986
    8          1             0       -2.887895    0.748216   -0.630970
    9          1             0       -2.352085   -1.653215    0.538828
   10          1             0       -0.480522    1.969362   -0.820219
   11          1             0        2.049572    1.228969    0.047647
   12          1             0        1.972500    0.003227    1.343450
   13          1             0        2.078973   -1.544435   -0.428571
 --------------------------------------------------------------------
     1 basis functions        1 primitive gaussians
     1 alpha electrons        1 beta electrons
 
 Harmonic frequencies (cm**-1), IR intensities (km*mol⁻¹),
 Raman scattering activities (A**4/amu), Raman depolarization ratios,
 reduced masses (AMU), force constants (mDyne/A) and normal coordinates:
                      1                      2                      3
                        a                      a                      a 
 Frequencies --    34.3015               146.1545               273.0564
 Red. masses --    11.0026                12.4162                 7.5394
 Frc consts  --     0.0000                 0.0000                 0.0000
 IR Inten    --     3.1710                 0.3116                28.4307
 Raman Activ --     0.0000                 0.0000                 0.0000
 Depolar     --     0.0000                 0.0000                 0.0000
 Atom AN      X      Y      Z        X      Y      Z        X      Y      Z
   1   6    -0.08   0.02   0.21    -0.12   0.17   0.25    -0.09  -0.08   0.13
   2   6     0.10  -0.09  -0.10    -0.20   0.14   0.21     0.16  -0.02   0.15
   3   8     0.17  -0.04  -0.35    -0.17  -0.14  -0.18     0.25   0.17  -0.19
   4   6    -0.01   0.12  -0.13    -0.04  -0.25  -0.34     0.02   0.21  -0.30
   5   6    -0.15   0.16   0.19    -0.02  -0.09  -0.11    -0.18   0.07  -0.20
   6   6     0.00   0.22  -0.23    -0.06  -0.06  -0.08    -0.03  -0.19   0.24
   7   8    -0.03  -0.40   0.37     0.56   0.18   0.17    -0.02  -0.08   0.14
   8   1    -0.05   0.00   0.12    -0.04   0.10   0.15    -0.06  -0.06   0.10
   9   1     0.06  -0.06  -0.06    -0.08   0.08   0.11     0.09  -0.02   0.10
  10   1    -0.09   0.08   0.11     0.02  -0.04  -0.05    -0.12   0.02  -0.09
  11   1    -0.00   0.02  -0.26    -0.07   0.01   0.01     0.15  -0.06   0.28
  12   1     0.01   0.26  -0.03    -0.09  -0.00   0.00    -0.18  -0.26   0.07
  13   1    -0.04  -0.07   0.24     0.22   0.01   0.02    -0.32   0.04  -0.31
                      4                      5                      6
                        a                      a                      a 
 Frequencies --   376.6978               408.3884               588.6739
 Red. masses --     4.1800                12.0677                10.3838
 Frc consts  --     0.0000                 0.0000                 0.0000
 IR Inten    --   127.7377                42.4598                 1.5643
 Raman Activ --     0.0000                 0.0000                 0.0000
 Depolar     --     0.0000                 0.0000                 0.0000
 Atom AN      X      Y      Z        X      Y      Z        X      Y      Z
   1   6     0.10   0.07   0.01     0.15   0.10   0.15    -0.10   0.22   0.48
   2   6    -0.06   0.04   0.02     0.08   0.08   0.13     0.05  -0.22  -0.49
   3   8    -0.06  -0.21  -0.00     0.15  -0.23  -0.27    -0.06   0.13   0.26
   4   6     0.04  -0.19   0.05     0.06  -0.15  -0.10    -0.00   0.05   0.10
   5   6     0.18  -0.12  -0.01     0.23  -0.14  -0.26     0.03  -0.16  -0.33
   6   6    -0.03   0.25  -0.09    -0.10   0.14   0.23     0.04   0.00   0.01
   7   8    -0.00   0.05   0.18    -0.56   0.16   0.01     0.03  -0.01  -0.01
   8   1     0.04   0.06   0.01     0.04   0.08   0.12    -0.04   0.10   0.22
   9   1    -0.05   0.04   0.01    -0.01   0.06   0.09     0.03  -0.11  -0.23
  10   1     0.10  -0.05  -0.00     0.11  -0.06  -0.10     0.02  -0.10  -0.21
  11   1    -0.09   0.07  -0.15    -0.04   0.05   0.07     0.02  -0.00  -0.01
  12   1     0.06   0.20  -0.01    -0.02   0.03   0.06     0.02   0.00  -0.00
  13   1    -0.62   0.15  -0.49     0.10  -0.00   0.30    -0.00  -0.00  -0.01
                      7                      8                      9
                        a                      a                      a 
 Frequencies --   621.3970               716.0799               768.2323
 Red. masses --    11.7489                11.2563                 3.0575
 Frc consts  --     0.0000                 0.0000                 0.0000
 IR Inten    --     3.9000                 6.2521                 9.9722
 Raman Activ --     0.0000                 0.0000                 0.0000
 Depolar     --     0.0000                 0.0000                 0.0000
 Atom AN      X      Y      Z        X      Y      Z        X      Y      Z
   1   6     0.21   0.03   0.00     0.17   0.05   0.03     0.01  -0.01  -0.03
   2   6     0.20  -0.06  -0.14     0.20   0.04   0.07    -0.06   0.17   0.38
   3   8     0.10   0.08   0.41     0.18  -0.13  -0.13     0.01  -0.03  -0.05
   4   6    -0.06  -0.27  -0.49    -0.30   0.19   0.47    -0.00  -0.00  -0.01
   5   6     0.09   0.21   0.21     0.06   0.12  -0.22    -0.00   0.01   0.01
   6   6    -0.39  -0.07  -0.13    -0.48  -0.23  -0.19    -0.01  -0.00  -0.00
   7   8    -0.11   0.07   0.07     0.14   0.00   0.05     0.00  -0.00  -0.00
   8   1     0.05  -0.03  -0.02     0.02  -0.05   0.02     0.00  -0.01  -0.03
   9   1     0.03  -0.02  -0.11     0.02   0.05   0.04     0.12  -0.36  -0.79
  10   1     0.08   0.06   0.09     0.07   0.02  -0.06     0.03  -0.08  -0.19
  11   1    -0.12  -0.01   0.02    -0.18  -0.05  -0.09     0.00  -0.00  -0.00
  12   1    -0.22  -0.04  -0.01    -0.09  -0.00  -0.05    -0.00  -0.00  -0.00
  13   1     0.01  -0.00   0.00     0.10  -0.05  -0.12     0.00  -0.00  -0.00
                     10                     11                     12
                        a                      a                      a 
 Frequencies --   825.2163               847.8502               859.6466
 Red. masses --     2.9394                 3.4667                11.5966
 Frc consts  --     0.0000                 0.0000                 0.0000
 IR Inten    --     9.4254                 0.1813                 1.0779
 Raman Activ --     0.0000                 0.0000                 0.0000
 Depolar     --     0.0000                 0.0000                 0.0000
 Atom AN      X      Y      Z        X      Y      Z        X      Y      Z
   1   6     0.04  -0.10  -0.22    -0.04   0.14   0.32     0.47  -0.25   0.18
   2   6    -0.01   0.03   0.07    -0.02   0.02   0.05    -0.35  -0.40   0.13
   3   8    -0.01   0.05   0.10    -0.00  -0.00  -0.01    -0.29   0.17  -0.13
   4   6    -0.00   0.01   0.02     0.01  -0.01  -0.03    -0.00   0.16  -0.06
   5   6     0.04  -0.12  -0.27     0.05  -0.14  -0.28     0.23   0.27  -0.09
   6   6    -0.01  -0.00   0.00     0.01   0.01  -0.01    -0.00   0.01  -0.02
   7   8     0.00  -0.00  -0.00    -0.01   0.00   0.00    -0.00   0.01   0.01
   8   1    -0.08   0.24   0.54     0.10  -0.27  -0.61     0.18   0.03   0.02
   9   1     0.02  -0.06  -0.13     0.01  -0.04  -0.09    -0.10  -0.11   0.04
  10   1    -0.09   0.28   0.60    -0.08   0.23   0.51    -0.12   0.09  -0.07
  11   1    -0.00  -0.00  -0.01     0.01   0.00   0.01     0.01  -0.00  -0.01
  12   1     0.00   0.01   0.00    -0.01  -0.01   0.00    -0.01   0.01  -0.00
  13   1     0.00  -0.00  -0.01    -0.01   0.00   0.01    -0.00   0.00   0.01
                     13                     14                     15
                        a                      a                      a 
 Frequencies --   917.4373               958.7949              1042.1732
 Red. masses --     8.0045                 7.4689                 4.3454
 Frc consts  --     0.0000                 0.0000                 0.0000
 IR Inten    --    37.9428                 2.8669                23.4814
 Raman Activ --     0.0000                 0.0000                 0.0000
 Depolar     --     0.0000                 0.0000                 0.0000
 Atom AN      X      Y      Z        X      Y      Z        X      Y      Z
   1   6    -0.07  -0.02   0.01     0.06   0.02   0.01    -0.10  -0.07   0.02
   2   6     0.02  -0.01   0.01     0.12   0.04  -0.00     0.03  -0.05   0.03
   3   8     0.01   0.47  -0.20    -0.06  -0.30   0.14    -0.18   0.20  -0.12
   4   6     0.12  -0.14  -0.03    -0.11  -0.01  -0.16    -0.09  -0.09   0.01
   5   6     0.04  -0.18   0.10    -0.12   0.38  -0.18     0.16   0.12  -0.03
   6   6    -0.09  -0.33   0.21     0.19  -0.12   0.35    -0.05   0.17   0.12
   7   8    -0.09   0.12   0.04    -0.01   0.01  -0.07     0.11  -0.14  -0.13
   8   1     0.04   0.09  -0.05    -0.14  -0.30   0.10    -0.26  -0.46   0.16
   9   1     0.21  -0.14   0.09    -0.17   0.14  -0.09     0.15  -0.11   0.07
  10   1    -0.01  -0.05   0.03    -0.15   0.13  -0.07     0.60  -0.03   0.11
  11   1    -0.28  -0.09  -0.33    -0.08  -0.06  -0.24    -0.06   0.07   0.08
  12   1     0.21   0.29   0.07     0.27   0.26   0.09     0.03  -0.02   0.00
  13   1     0.12  -0.06  -0.20     0.07  -0.04  -0.13    -0.06   0.01   0.06
                     16                     17                     18
                        a                      a                      a 
 Frequencies --  1050.5477              1100.9378              1124.9350
 Red. masses --    10.7198                 6.0073                 4.9613
 Frc consts  --     0.0000                 0.0000                 0.0000
 IR Inten    --    96.7547                14.1196                 0.7237
 Raman Activ --     0.0000                 0.0000                 0.0000
 Depolar     --     0.0000                 0.0000                 0.0000
 Atom AN      X      Y      Z        X      Y      Z        X      Y      Z
   1   6    -0.08  -0.06   0.01    -0.19   0.02  -0.04    -0.03   0.14  -0.07
   2   6    -0.05   0.00  -0.01    -0.27  -0.21   0.06     0.15  -0.03   0.04
   3   8    -0.05  -0.03   0.00     0.31  -0.16   0.12    -0.20  -0.18   0.06
   4   6     0.07   0.09   0.01    -0.14   0.13  -0.09    -0.16  -0.13   0.02
   5   6     0.09   0.03  -0.00    -0.04   0.17  -0.08    -0.04   0.25  -0.12
   6   6     0.28  -0.37  -0.40     0.03   0.05   0.14     0.19  -0.11  -0.10
   7   8    -0.28   0.38   0.36    -0.00  -0.02  -0.05    -0.02   0.09   0.07
   8   1    -0.14  -0.23   0.09     0.14   0.38  -0.15     0.06   0.18  -0.07
   9   1    -0.07   0.03  -0.03     0.02  -0.12   0.06     0.57  -0.36   0.25
  10   1     0.22  -0.01   0.04     0.48  -0.01   0.08    -0.08   0.08  -0.05
  11   1     0.24  -0.15  -0.12     0.21  -0.10  -0.13    -0.07   0.04   0.07
  12   1    -0.06  -0.02  -0.03    -0.06   0.14   0.08     0.17  -0.09  -0.06
  13   1     0.05   0.03  -0.05     0.14  -0.08  -0.17    -0.15   0.10   0.17
                     19                     20                     21
                        a                      a                      a 
 Frequencies --  1154.3130              1206.2817              1250.2360
 Red. masses --     4.8954                 9.0300                10.9344
 Frc consts  --     0.0000                 0.0000                 0.0000
 IR Inten    --    22.1935                31.2968                25.6463
 Raman Activ --     0.0000                 0.0000                 0.0000
 Depolar     --     0.0000                 0.0000                 0.0000
 Atom AN      X      Y      Z        X      Y      Z        X      Y      Z
   1   6     0.07   0.02  -0.00    -0.23   0.08  -0.07    -0.24  -0.18   0.05
   2   6     0.20   0.11  -0.02    -0.48   0.04  -0.09     0.20   0.03   0.02
   3   8    -0.35  -0.12  -0.01     0.32  -0.13   0.11    -0.31  -0.27   0.08
   4   6     0.08   0.05   0.01     0.23   0.03   0.04     0.41   0.52  -0.16
   5   6     0.07  -0.09   0.06     0.39   0.12   0.01     0.15  -0.01   0.03
   6   6    -0.12   0.23   0.06    -0.13   0.01  -0.00    -0.15  -0.13   0.02
   7   8    -0.05  -0.06  -0.03     0.00  -0.03  -0.02     0.03  -0.01  -0.05
   8   1    -0.02  -0.08   0.03    -0.21  -0.23   0.07     0.04   0.15  -0.06
   9   1     0.28  -0.11   0.10     0.17  -0.19   0.11     0.00   0.04  -0.02
  10   1    -0.14  -0.01  -0.02    -0.31   0.09  -0.09     0.14  -0.01   0.03
  11   1     0.45  -0.14  -0.13    -0.11   0.03   0.01    -0.30   0.06  -0.00
  12   1    -0.32   0.12   0.10    -0.09   0.01   0.01    -0.03   0.06   0.02
  13   1     0.29  -0.17  -0.32     0.03  -0.02  -0.03    -0.07   0.04   0.09
                     22                     23                     24
                        a                      a                      a 
 Frequencies --  1292.5233              1336.1765              1371.6470
 Red. masses --     3.2524                 3.7817                10.3640
 Frc consts  --     0.0000                 0.0000                 0.0000
 IR Inten    --    19.2730                79.1312                15.8654
 Raman Activ --     0.0000                 0.0000                 0.0000
 Depolar     --     0.0000                 0.0000                 0.0000
 Atom AN      X      Y      Z        X      Y      Z        X      Y      Z
   1   6    -0.07  -0.03   0.01    -0.02  -0.02   0.01    -0.47  -0.31   0.07
   2   6     0.01  -0.02   0.01    -0.03   0.04  -0.02     0.27  -0.01   0.05
   3   8    -0.03  -0.03   0.01     0.01  -0.01   0.00    -0.04   0.14  -0.07
   4   6     0.10   0.03  -0.08     0.01   0.04  -0.05    -0.19  -0.28   0.11
   5   6     0.03   0.03  -0.01     0.08  -0.05   0.04     0.46   0.26  -0.05
   6   6    -0.20   0.21  -0.06    -0.38  -0.07   0.14     0.06   0.06  -0.02
   7   8    -0.10  -0.05   0.23     0.16   0.12  -0.10    -0.00  -0.00  -0.00
   8   1    -0.00   0.02  -0.01    -0.01  -0.02   0.01     0.02   0.21  -0.09
   9   1    -0.02   0.01  -0.01     0.01   0.00   0.00    -0.15   0.14  -0.09
  10   1     0.02   0.01   0.00    -0.04  -0.01  -0.00    -0.15   0.11  -0.07
  11   1     0.04   0.06   0.10     0.48  -0.30  -0.30     0.10  -0.01   0.02
  12   1     0.63  -0.37  -0.28     0.29  -0.08  -0.08    -0.06   0.01   0.02
  13   1     0.28  -0.17  -0.30    -0.30   0.20   0.34     0.00  -0.00  -0.01
                     25                     26                     27
                        a                      a                      a 
 Frequencies --  1449.7749              1486.9920              1595.7943
 Red. masses --     1.9075                11.2998                11.4946
 Frc consts  --     0.0000                 0.0000                 0.0000
 IR Inten    --     0.1769                27.2071                 0.7752
 Raman Activ --     0.0000                 0.0000                 0.0000
 Depolar     --     0.0000                 0.0000                 0.0000
 Atom AN      X      Y      Z        X      Y      Z        X      Y      Z
   1   6    -0.00   0.01  -0.00    -0.13   0.46  -0.23     0.04  -0.33   0.16
   2   6     0.01  -0.02   0.01     0.17  -0.53   0.27    -0.12   0.27  -0.14
   3   8    -0.01   0.00  -0.01    -0.08   0.06  -0.04     0.01   0.01  -0.00
   4   6     0.01  -0.01   0.02     0.40  -0.17   0.14     0.50  -0.33   0.23
   5   6    -0.02   0.02  -0.01    -0.11   0.14  -0.08    -0.37   0.32  -0.20
   6   6     0.17   0.17   0.15    -0.13   0.01  -0.04    -0.12   0.01  -0.04
   7   8    -0.01   0.02   0.03    -0.00   0.01  -0.01    -0.01   0.01  -0.00
   8   1     0.00   0.01  -0.00    -0.13  -0.00  -0.02     0.10   0.05  -0.01
   9   1    -0.01   0.00  -0.00    -0.20  -0.01  -0.02     0.07   0.02   0.00
  10   1     0.01   0.00  -0.00    -0.03   0.05  -0.03     0.13   0.08  -0.02
  11   1    -0.25  -0.05  -0.62     0.06  -0.03   0.01     0.04  -0.02   0.00
  12   1    -0.27  -0.62  -0.06    -0.07   0.02   0.01    -0.07   0.00   0.01
  13   1    -0.00   0.00   0.00    -0.02   0.01   0.02    -0.01   0.01   0.01
                     28                     29                     30
                        a                      a                      a 
 Frequencies --  2860.0620              3003.3848              3169.0200
 Red. masses --     1.7130                 1.7181                 1.8273
 Frc consts  --     0.0000                 0.0000                 0.0000
 IR Inten    --    55.4864                14.8372                 3.8008
 Raman Activ --     0.0000                 0.0000                 0.0000
 Depolar     --     0.0000                 0.0000                 0.0000
 Atom AN      X      Y      Z        X      Y      Z        X      Y      Z
   1   6    -0.00   0.00  -0.00     0.00  -0.00   0.00    -0.08   0.03  -0.03
   2   6     0.00  -0.00   0.00     0.00   0.00  -0.00     0.15   0.20  -0.07
   3   8    -0.00   0.00  -0.00     0.00   0.00  -0.00     0.00   0.00  -0.00
   4   6     0.01  -0.01   0.01    -0.00  -0.01   0.00    -0.00  -0.00   0.00
   5   6    -0.00   0.00  -0.00     0.00   0.00  -0.00    -0.00  -0.01   0.01
   6   6     0.06  -0.07   0.23    -0.09  -0.23   0.06     0.00   0.00  -0.00
   7   8    -0.01   0.01   0.01     0.00  -0.01  -0.00    -0.00   0.00   0.00
   8   1     0.00   0.00  -0.00    -0.00   0.00  -0.00     0.31  -0.13   0.11
   9   1    -0.00   0.00  -0.00    -0.00  -0.00   0.00    -0.54  -0.67   0.22
  10   1    -0.00   0.00  -0.00    -0.00  -0.01   0.00     0.01   0.05  -0.02
  11   1     0.02   0.02   0.03     0.30   0.89  -0.23     0.00  -0.00   0.00
  12   1    -0.23   0.21  -0.92    -0.01  -0.04   0.04    -0.00   0.00  -0.00
  13   1    -0.00   0.00  -0.00    -0.00  -0.01   0.00    -0.00  -0.00   0.00
                     31                     32                     33
                        a                      a                      a 
 Frequencies --  3184.8840              3194.0444              3540.9922
 Red. masses --     1.8820                 1.9800                 1.8738
 Frc consts  --     0.0000                 0.0000                 0.0000
 IR Inten    --    19.9037                12.9744                10.3530
 Raman Activ --     0.0000                 0.0000                 0.0000
 Depolar     --     0.0000                 0.0000                 0.0000
 Atom AN      X      Y      Z        X      Y      Z        X      Y      Z
   1   6    -0.16   0.07  -0.06    -0.18   0.07  -0.06     0.00   0.00  -0.00
   2   6    -0.05  -0.07   0.02    -0.04  -0.06   0.02     0.00  -0.00   0.00
   3   8     0.00  -0.00   0.00     0.00  -0.00   0.00    -0.00   0.00  -0.00
   4   6    -0.01   0.00  -0.00     0.01  -0.00   0.00    -0.00  -0.00   0.00
   5   6    -0.03  -0.18   0.08     0.04   0.19  -0.08     0.00   0.00  -0.00
   6   6    -0.00  -0.00   0.00    -0.00   0.00  -0.00     0.00   0.01   0.00
   7   8     0.00   0.00  -0.00    -0.00  -0.00   0.00     0.08   0.22  -0.04
   8   1     0.55  -0.23   0.19     0.56  -0.23   0.19     0.00  -0.00   0.00
   9   1     0.17   0.21  -0.07     0.12   0.16  -0.05     0.00   0.00  -0.00
  10   1     0.12   0.61  -0.26    -0.13  -0.61   0.26     0.00  -0.00   0.00
  11   1     0.00   0.01  -0.00    -0.00  -0.00   0.00    -0.00  -0.01   0.01
  12   1     0.00   0.00   0.00    -0.00  -0.00   0.00    -0.00  -0.00  -0.00
  13   1    -0.00  -0.00   0.00     0.00   0.00  -0.00    -0.32  -0.90   0.14
