13
 energy: -21.871254929259 gnorm: 0.000100424611 xtb: 6.7.1pre (5071a88)
C           -1.94243818063751        0.36226220990084       -0.31004007211878
C           -1.70448874453127       -0.84156028870113        0.27296515439294
O           -0.39631492945228       -0.98812680338039        0.54234245677118
C            0.22736892975147        0.13979940885441        0.12712019993774
C           -0.68202913880485        1.00199124785180       -0.40897370539821
C            1.71100940101920        0.22197592187967        0.29639706780705
O            2.40635450747774       -0.64846659812041       -0.56997864972178
H           -2.88789686982685        0.74820185599141       -0.63097920731049
H           -2.35207795545795       -1.65322813069481        0.53881679022353
H           -0.48052964982718        1.96936088266662       -0.82021683444210
H            2.04956559759365        1.22897973589723        0.04765583381339
H            1.97249512553584        0.00323519147608        1.34345628929343
H            2.07898190716001       -1.54442363362134       -0.42856632324790
