13

C     -1.925930    0.359585   -0.310820
C     -1.654479   -0.873045    0.234603
O     -0.327059   -0.997556    0.492520
C      0.263655    0.173108    0.110055
C     -0.685570    1.037272   -0.393755
C      1.728884    0.259659    0.299302
O      2.329545   -0.744190   -0.509949
H     -2.897938    0.722260   -0.614104
H     -2.262500   -1.730428    0.487931
H     -0.502340    2.031379   -0.777489
H      2.118528    1.233836   -0.008734
H      2.002923    0.083660    1.343612
H      1.812281   -1.555539   -0.353173
