15

C      0.212780   -1.338765    0.601537
C     -0.699036   -0.450710    0.072030
O     -0.048777    0.623838   -0.465652
C      1.290344    0.416668   -0.283841
C      1.493080   -0.781541    0.370397
C      2.211374    1.409058   -0.767700
O      3.434521    1.343243   -0.672094
C     -2.177141   -0.436345   -0.012436
O     -2.644772    0.628061    0.805650
H     -0.019293   -2.271783    1.097059
H      2.455225   -1.193078    0.645846
H      1.742379    2.279951   -1.256434
H     -2.609854   -1.371869    0.352798
H     -2.513931   -0.269599   -1.039815
H     -2.126898    1.412870    0.552654
