24

C      2.968040   -0.428129   -0.241984
C      1.918435    0.619722    0.099970
C      0.516693    0.032242    0.347961
C     -0.061944   -0.648162   -0.903670
C     -1.484656   -1.154833   -0.673045
C     -2.407033   -0.047973   -0.175710
C     -1.846489    0.623493    1.072548
C     -0.429185    1.140802    0.842078
H      3.004615   -1.212046    0.520917
H      2.770298   -0.894473   -1.211348
H      3.957591    0.037187   -0.296764
H      1.878547    1.363188   -0.705493
H      2.248609    1.150083    1.001919
H      0.596710   -0.722482    1.142435
H      0.562862   -1.497569   -1.200566
H     -0.061606    0.057970   -1.743733
H     -1.465465   -1.970767    0.060024
H     -1.881229   -1.573320   -1.605029
H     -3.397972   -0.462424    0.041082
H     -2.539161    0.700901   -0.966285
H     -1.843398   -0.092294    1.903767
H     -2.497880    1.453583    1.368372
H     -0.458840    1.957933    0.109741
H     -0.047542    1.567369    1.777512
