14

C     -1.704633    0.595840    0.126639
C     -1.482508   -0.745335    0.457244
C     -0.195698   -1.286383    0.386713
C      0.858303   -0.474147   -0.015929
C      0.633314    0.860995   -0.344390
C     -0.641112    1.404485   -0.276641
O      1.675390    1.650622   -0.738788
O      2.139838   -0.943893   -0.105147
H     -2.707699    1.011149    0.183387
H     -2.316991   -1.368219    0.770485
H     -0.041159   -2.328276    0.646617
H     -0.804127    2.446119   -0.535024
H      2.452895    1.058446   -0.708530
H      2.134190   -1.881402    0.153363
