20

C     -1.206953   -0.128193   -1.348996
C     -1.242197    0.859526   -0.182311
C     -0.365159    0.346989    0.961454
C      1.033433    0.016863    0.449308
C      0.925660   -0.945119   -0.744649
O      0.131127   -0.391478   -1.781952
O      2.236079   -1.158670   -1.251614
O      1.803617   -0.557518    1.516178
O     -0.300616    1.345131    1.992231
O     -2.580445    1.034721    0.283494
H     -1.764029    0.281627   -2.198605
H     -1.700410   -1.072353   -1.085807
H     -0.878254    1.840187   -0.512341
H     -0.823249   -0.532769    1.430582
H      1.550470    0.939042    0.155788
H      0.530365   -1.920412   -0.435491
H      2.099643   -1.705298   -2.044870
H      2.637636   -0.848975    1.094229
H      0.410233    1.043450    2.593975
H     -2.496950    1.553251    1.109398
