26

C      4.132001   -0.352234    0.040993
C      2.835135    0.287728   -0.428128
C      1.615524   -0.427124    0.153230
C      0.312095    0.219648   -0.321923
C     -0.907967   -0.495698    0.266125
C     -2.249242    0.032765   -0.275340
C     -2.495281    1.495204    0.098362
C     -3.397422   -0.833667    0.248323
H      4.217214   -0.312083    1.131618
H      4.990906    0.174530   -0.386453
H      4.187184   -1.400384   -0.269927
H      2.826226    1.342467   -0.129560
H      2.796085    0.260079   -1.523302
H      1.632554   -1.482575   -0.144737
H      1.660859   -0.399748    1.248807
H      0.309237    1.274305   -0.025319
H      0.264935    0.187510   -1.417032
H     -0.888840   -0.408287    1.360017
H     -0.831932   -1.566281    0.035724
H     -2.242241   -0.045407   -1.369913
H     -3.484983    1.820992   -0.239854
H     -1.760491    2.155907   -0.371272
H     -2.443926    1.642088    1.182476
H     -4.356824   -0.496061   -0.157943
H     -3.459069   -0.793960    1.341254
H     -3.261736   -1.879714   -0.046226
