27

C      3.819976   -0.071009   -0.429469
C      2.439549   -0.517654    0.028458
C      1.379736    0.542236   -0.281041
C     -0.015105    0.200890    0.279273
C     -0.962822    1.394931    0.067884
C     -2.373196    1.103726    0.573161
C     -2.945519   -0.157966   -0.062043
C     -2.022225   -1.352520    0.146553
C     -0.605975   -1.070500   -0.352305
H      4.123788    0.849554    0.079049
H      3.835078    0.110909   -1.508834
H      4.562038   -0.843447   -0.204418
H      2.465650   -0.715895    1.106048
H      2.195447   -1.459981   -0.472873
H      1.317872    0.688724   -1.366975
H      1.706224    1.499361    0.146053
H      0.081270    0.033907    1.360911
H     -1.007969    1.649219   -0.998984
H     -0.572102    2.277941    0.587779
H     -2.354009    0.988799    1.663897
H     -3.026341    1.955733    0.353259
H     -3.092916    0.007358   -1.136386
H     -3.930742   -0.373210    0.366594
H     -1.987965   -1.605307    1.213533
H     -2.428089   -2.226791   -0.374916
H      0.019391   -1.939376   -0.120537
H     -0.621044   -0.969632   -1.444954
