18

C     -0.705899   -1.129490   -0.634611
C      0.560117   -1.351857    0.188468
C      1.459286   -0.118503    0.182250
C      0.705900    1.129489    0.634611
C     -0.560117    1.351856   -0.188467
C     -1.459285    0.118503   -0.182252
H     -0.438883   -1.029857   -1.693941
H     -1.359032   -2.005371   -0.550786
H      1.111240   -2.212222   -0.207527
H      0.284570   -1.596584    1.221709
H      1.852910    0.040252   -0.829315
H      2.321175   -0.286976    0.837644
H      1.359029    2.005371    0.550788
H      0.438883    1.029856    1.693942
H     -0.284576    1.596586   -1.221709
H     -1.111238    2.212220    0.207532
H     -2.321170    0.286979   -0.837648
H     -1.852910   -0.040252    0.829311
