21

C     -2.932684   -0.266892    2.191601
O     -1.908503   -0.963814    1.498095
C     -1.018015   -0.219042    0.772267
C     -0.016373   -0.927533    0.096447
C      0.955110   -0.276668   -0.680697
C      0.920193    1.112278   -0.781198
C     -0.073523    1.832260   -0.112280
C     -1.036586    1.172397    0.659461
O      1.869224   -1.106469   -1.280800
C      2.870195   -0.483353   -2.077199
O      0.026419   -2.299406    0.189575
H     -3.547365   -1.006911    2.713157
H     -3.582956    0.274488    1.496559
H     -2.511936    0.406283    2.945812
H      1.645458    1.665811   -1.367529
H     -0.099620    2.916826   -0.191618
H     -1.787140    1.775441    1.159310
H      3.496927    0.181792   -1.474051
H      2.425494    0.049949   -2.923857
H      3.513507   -1.271078   -2.480984
H      0.792171   -2.566359   -0.352071
