26

C     -3.192463   -0.556198    0.332673
C     -1.876054    0.148696    0.680044
C     -0.684534   -0.433616   -0.094726
C      0.613788    0.363539    0.176997
C      1.847724   -0.359688   -0.393545
C      3.130939    0.460694   -0.234187
O      4.205658   -0.290095   -0.811060
O      1.657631   -0.632882   -1.798656
O      0.500337    1.656816   -0.443014
O     -0.970469   -0.414030   -1.503393
O     -1.651618    0.010616    2.092321
O     -4.238155    0.005722    1.136617
H     -3.463423   -0.448826   -0.721750
H     -3.139372   -1.620873    0.581251
H     -1.990290    1.219557    0.474790
H     -0.536144   -1.477096    0.209821
H      0.759530    0.521414    1.250941
H      1.970197   -1.334536    0.092766
H      3.072514    1.408625   -0.777798
H      3.354789    0.649339    0.819870
H      5.012062    0.242599   -0.686709
H      2.557030   -0.866677   -2.116374
H      0.192859    1.477311   -1.354713
H     -0.140004   -0.701096   -1.948319
H     -2.536997    0.098577    2.501690
H     -4.455536    0.872107    0.747626
