12
Coordinates from ORCA-job optfreq E -269.282060110749
  C      -1.910666     -0.022784     -0.043110
  C      -0.423859     -0.037076     -0.018165
  C       0.487259      0.937253      0.261178
  C       1.765935      0.339376      0.125342
  C       1.535778     -0.951857     -0.225933
  O       0.214312     -1.190138     -0.315520
  H      -2.271557      0.967859      0.215972
  H      -2.277221     -0.288907     -1.033890
  H      -2.310152     -0.745783      0.667181
  H       0.278081      1.952537      0.529832
  H       2.716556      0.810241      0.270218
  H       2.195535     -1.770719     -0.433104
12
Coordinates from ORCA-job optfreq E -269.283107553007
  C      -1.915680     -0.025907     -0.044051
  C      -0.430531     -0.026750     -0.015354
  C       0.487483      0.942534      0.262664
  C       1.774843      0.337810      0.125192
  C       1.547308     -0.954624     -0.226591
  O       0.211587     -1.188340     -0.315245
  H      -2.283018      0.967814      0.215310
  H      -2.287811     -0.292847     -1.039649
  H      -2.321000     -0.751341      0.670356
  H       0.276337      1.966516      0.533664
  H       2.735500      0.809061      0.270458
  H       2.204983     -1.783925     -0.436753
12
Coordinates from ORCA-job optfreq E -269.283321169507
  C      -1.914461     -0.029142     -0.044947
  C      -0.432443     -0.017603     -0.012939
  C       0.489007      0.947004      0.264022
  C       1.778237      0.337982      0.125129
  C       1.551131     -0.953502     -0.226178
  O       0.207649     -1.187209     -0.314826
  H      -2.288861      0.963676      0.214057
  H      -2.288965     -0.295981     -1.040786
  H      -2.322228     -0.754648      0.669545
  H       0.277556      1.972218      0.535467
  H       2.742049      0.805948      0.269466
  H       2.201329     -1.788741     -0.438011
12
Coordinates from ORCA-job optfreq E -269.283361053314
  C      -1.912723     -0.030716     -0.045243
  C      -0.432073     -0.012456     -0.011645
  C       0.490633      0.949372      0.264344
  C       1.778934      0.338410      0.125371
  C       1.551501     -0.951711     -0.225667
  O       0.205816     -1.185961     -0.314585
  H      -2.293178      0.960056      0.213528
  H      -2.287192     -0.297536     -1.040567
  H      -2.320261     -0.756583      0.668269
  H       0.279341      1.974107      0.535497
  H       2.743519      0.803712      0.269193
  H       2.195682     -1.790693     -0.438496
12
Coordinates from ORCA-job optfreq E -269.283367446476
  C      -1.912061     -0.030978     -0.045347
  C      -0.431503     -0.010638     -0.011178
  C       0.491641      0.950126      0.264636
  C       1.779021      0.338847      0.125209
  C       1.551134     -0.950845     -0.225179
  O       0.205577     -1.185099     -0.314046
  H      -2.296087      0.958267      0.213528
  H      -2.285561     -0.297786     -1.040690
  H      -2.318607     -0.757709      0.667346
  H       0.280476      1.974499      0.535664
  H       2.743763      0.803120      0.268466
  H       2.192207     -1.791802     -0.438409
12
Coordinates from ORCA-job optfreq E -269.283368819559
  C      -1.911947     -0.030925     -0.045223
  C      -0.431257     -0.010068     -0.010996
  C       0.492167      0.950515      0.264347
  C       1.779114      0.339032      0.125516
  C       1.550887     -0.950500     -0.225163
  O       0.205698     -1.184470     -0.313875
  H      -2.297864      0.957459      0.213764
  H      -2.284633     -0.297857     -1.040766
  H      -2.317550     -0.758411      0.667125
  H       0.281036      1.974883      0.535079
  H       2.743944      0.802870      0.268892
  H       2.190405     -1.792526     -0.438702
12
Coordinates from ORCA-job optfreq E -269.283369059527
  C      -1.912000     -0.030800     -0.045291
  C      -0.431244     -0.009914     -0.010910
  C       0.492360      0.950583      0.264618
  C       1.779235      0.339263      0.125148
  C       1.550807     -0.950540     -0.224843
  O       0.205754     -1.184214     -0.313485
  H      -2.298696      0.957147      0.214083
  H      -2.284119     -0.297507     -1.041151
  H      -2.317133     -0.758998      0.666647
  H       0.281228      1.974972      0.535420
  H       2.744148      0.803127      0.268094
  H       2.189660     -1.793116     -0.438332
