12
Coordinates from ORCA-job optfreq E -269.283369059527
  C          -1.91200016378708     -0.03080008592843     -0.04529061106246
  C          -0.43124373024001     -0.00991426465147     -0.01090969011379
  C           0.49236017318736      0.95058263433999      0.26461788313918
  C           1.77923475816655      0.33926345281114      0.12514829763296
  C           1.55080733764881     -0.95053972514403     -0.22484264825463
  O           0.20575428587289     -1.18421417417523     -0.31348510767369
  H          -2.29869631087004      0.95714654212677      0.21408256583804
  H          -2.28411928984411     -0.29750729789854     -1.04115060776864
  H          -2.31713262093405     -0.75899798118207      0.66664704267258
  H           0.28122825036651      1.97497213643542      0.53542024851330
  H           2.74414750963430      0.80312696927405      0.26809436076440
  H           2.18965980079886     -1.79311620600762     -0.43833173368726
