12
 energy: -17.816401133275 gnorm: 0.000077531442 xtb: 6.7.1pre (5071a88)
C           -1.91066633515326       -0.02278390659396       -0.04310974645364
C           -0.42385895108335       -0.03707581032362       -0.01816458797006
C            0.48725854696209        0.93725300150569        0.26117789113649
C            1.76593473002637        0.33937588884035        0.12534174845007
C            1.53577789875045       -0.95185688642432       -0.22593339591135
O            0.21431246298249       -1.19013827468519       -0.31551978383304
H           -2.27155697746555        0.96785912096281        0.21597224377815
H           -2.27722052499893       -0.28890732275651       -1.03388993798865
H           -2.31015241099093       -0.74578309618034        0.66718057189555
H            0.27808055651759        1.95253701771418        0.52983159610324
H            2.71655630627628        0.81024140438956        0.27021755769442
H            2.19553469817673       -1.77071913644866       -0.43310415690117
