 Entering Gaussian System
 *********************************************
 Gaussian 98:
 frequency output generated by the xtb code
 *********************************************
                         Standard orientation:
 --------------------------------------------------------------------
  Center     Atomic     Atomic              Coordinates (Angstroms)
  Number     Number      Type              X           Y           Z
 --------------------------------------------------------------------
    1          6             0        2.436595   -0.353465   -0.530310
    2          6             0        1.064765    0.124990   -0.213207
    3          6             0        0.559591    1.374526   -0.025250
    4          6             0       -0.822772    1.209528    0.251371
    5          6             0       -1.064342   -0.129138    0.212844
    6          8             0        0.080858   -0.793909   -0.069472
    7          6             0       -2.306930   -0.919647    0.418905
    8          1             0        2.440245   -0.905957   -1.469402
    9          1             0        2.798329   -1.020097    0.251934
   10          1             0        3.108767    0.495142   -0.613869
   11          1             0        1.098228    2.298766   -0.076005
   12          1             0       -1.534475    1.984529    0.450820
   13          1             0       -3.133739   -0.249959    0.635323
   14          1             0       -2.183516   -1.614740    1.248825
   15          1             0       -2.541603   -1.500568   -0.472507
 --------------------------------------------------------------------
     1 basis functions        1 primitive gaussians
     1 alpha electrons        1 beta electrons
 
 Harmonic frequencies (cm**-1), IR intensities (km*mol⁻¹),
 Raman scattering activities (A**4/amu), Raman depolarization ratios,
 reduced masses (AMU), force constants (mDyne/A) and normal coordinates:
                      1                      2                      3
                        a                      a                      a 
 Frequencies --    60.3584                64.3730               186.9013
 Red. masses --     1.0745                 1.7046                10.7501
 Frc consts  --     0.0000                 0.0000                 0.0000
 IR Inten    --     0.0002                 0.0745                 3.1904
 Raman Activ --     0.0000                 0.0000                 0.0000
 Depolar     --     0.0000                 0.0000                 0.0000
 Atom AN      X      Y      Z        X      Y      Z        X      Y      Z
   1   6     0.01  -0.00   0.05    -0.01   0.00  -0.05    -0.08   0.02  -0.37
   2   6    -0.00   0.00  -0.02    -0.00   0.00  -0.02     0.05  -0.02   0.23
   3   6    -0.00   0.00  -0.01     0.03  -0.01   0.13    -0.01   0.00  -0.03
   4   6     0.00  -0.00   0.01     0.03  -0.01   0.13    -0.01   0.00  -0.03
   5   6     0.00  -0.00   0.02    -0.00   0.00  -0.02     0.05  -0.02   0.23
   6   8     0.00  -0.00   0.00    -0.03   0.01  -0.12     0.12  -0.04   0.58
   7   6    -0.01   0.00  -0.05    -0.01   0.00  -0.05    -0.08   0.02  -0.37
   8   1    -0.06  -0.34   0.22    -0.09  -0.34   0.19    -0.15   0.03  -0.12
   9   1     0.15   0.31   0.21     0.17   0.32   0.18     0.09  -0.01  -0.18
  10   1    -0.08   0.02  -0.36    -0.08   0.03  -0.41    -0.04   0.01  -0.18
  11   1    -0.00   0.00  -0.01     0.01  -0.00   0.06    -0.02   0.01  -0.08
  12   1     0.00  -0.00   0.00     0.01  -0.00   0.06    -0.02   0.01  -0.08
  13   1     0.08  -0.03   0.38    -0.08   0.03  -0.39    -0.04   0.01  -0.18
  14   1     0.13  -0.29  -0.28    -0.14   0.26   0.23    -0.15  -0.04  -0.13
  15   1    -0.23   0.32  -0.17     0.22  -0.29   0.12     0.08   0.06  -0.17
                      4                      5                      6
                        a                      a                      a 
 Frequencies --   242.4980               287.5622               375.7179
 Red. masses --     8.5867                 9.1193                 9.2377
 Frc consts  --     0.0000                 0.0000                 0.0000
 IR Inten    --     1.6764                 0.0105                 0.8896
 Raman Activ --     0.0000                 0.0000                 0.0000
 Depolar     --     0.0000                 0.0000                 0.0000
 Atom AN      X      Y      Z        X      Y      Z        X      Y      Z
   1   6     0.23   0.42  -0.02     0.04  -0.01   0.18    -0.07  -0.24  -0.00
   2   6     0.02  -0.18  -0.02    -0.09   0.03  -0.44     0.11   0.32  -0.00
   3   6     0.00  -0.19  -0.01    -0.07   0.02  -0.35    -0.21   0.20   0.06
   4   6     0.03  -0.19  -0.02     0.07  -0.02   0.35    -0.16  -0.24   0.02
   5   6     0.02  -0.18  -0.02     0.09  -0.03   0.44     0.18  -0.29  -0.06
   6   8     0.03  -0.26  -0.02    -0.00   0.00  -0.00     0.39   0.05  -0.08
   7   6    -0.31   0.36   0.09    -0.04   0.01  -0.18    -0.12   0.21   0.04
   8   1     0.17   0.16  -0.03     0.17  -0.03   0.07    -0.14  -0.11   0.02
   9   1     0.17   0.16  -0.02    -0.12   0.02   0.14    -0.14  -0.11   0.02
  10   1    -0.07   0.23   0.03     0.03  -0.01   0.14     0.13  -0.20  -0.04
  11   1     0.01  -0.06  -0.01    -0.04   0.01  -0.20    -0.15   0.11   0.04
  12   1     0.00  -0.06  -0.00     0.04  -0.01   0.20    -0.12  -0.14   0.02
  13   1     0.02   0.24   0.01    -0.03   0.01  -0.14     0.09   0.22  -0.00
  14   1    -0.19   0.11   0.05    -0.16  -0.05  -0.08    -0.16   0.07   0.04
  15   1    -0.19   0.11   0.05     0.12   0.07  -0.13    -0.16   0.07   0.04
                      7                      8                      9
                        a                      a                      a 
 Frequencies --   588.2009               602.8146               611.2399
 Red. masses --    10.2383                12.1790                10.6419
 Frc consts  --     0.0000                 0.0000                 0.0000
 IR Inten    --     0.0048                 1.3746                 0.0084
 Raman Activ --     0.0000                 0.0000                 0.0000
 Depolar     --     0.0000                 0.0000                 0.0000
 Atom AN      X      Y      Z        X      Y      Z        X      Y      Z
   1   6    -0.01   0.00  -0.04    -0.01   0.00  -0.06     0.50  -0.14  -0.11
   2   6    -0.09   0.03  -0.41    -0.10   0.03  -0.49     0.29   0.09  -0.06
   3   6     0.10  -0.03   0.48     0.04  -0.01   0.19     0.04   0.02  -0.01
   4   6    -0.10   0.03  -0.48     0.04  -0.01   0.19    -0.04   0.01   0.01
   5   6     0.09  -0.03   0.41    -0.10   0.03  -0.49    -0.30   0.02   0.07
   6   8     0.00  -0.00   0.00     0.11  -0.04   0.54    -0.03   0.30   0.03
   7   6     0.01  -0.00   0.04    -0.01   0.00  -0.06    -0.46  -0.25   0.08
   8   1     0.10  -0.03   0.01     0.14  -0.05   0.01     0.12  -0.04  -0.03
   9   1    -0.09   0.03   0.05    -0.12   0.04   0.07     0.12  -0.04  -0.03
  10   1     0.01  -0.00   0.03     0.01  -0.00   0.05     0.17  -0.06  -0.04
  11   1     0.05  -0.02   0.23     0.01  -0.00   0.04    -0.06   0.05   0.02
  12   1    -0.05   0.02  -0.23     0.01  -0.00   0.04     0.05   0.07  -0.01
  13   1    -0.01   0.00  -0.03     0.01  -0.00   0.05    -0.16  -0.10   0.03
  14   1    -0.09  -0.05  -0.02     0.13   0.07   0.02    -0.11  -0.07   0.02
  15   1     0.08   0.06  -0.05    -0.11  -0.08   0.06    -0.11  -0.07   0.02
                     10                     11                     12
                        a                      a                      a 
 Frequencies --   704.6893               813.6684               832.6285
 Red. masses --    10.5206                 2.8234                 3.3150
 Frc consts  --     0.0000                 0.0000                 0.0000
 IR Inten    --     0.4032                12.4832                 0.0010
 Raman Activ --     0.0000                 0.0000                 0.0000
 Depolar     --     0.0000                 0.0000                 0.0000
 Atom AN      X      Y      Z        X      Y      Z        X      Y      Z
   1   6    -0.38   0.16   0.09    -0.00   0.00  -0.00     0.00  -0.00   0.01
   2   6    -0.09   0.13   0.03     0.00  -0.00   0.01     0.00  -0.00   0.01
   3   6     0.40   0.23  -0.07    -0.05   0.02  -0.26     0.07  -0.02   0.32
   4   6     0.43  -0.13  -0.10    -0.05   0.02  -0.26    -0.07   0.02  -0.32
   5   6    -0.06  -0.15   0.00     0.00  -0.00   0.01    -0.00   0.00  -0.01
   6   8     0.13   0.02  -0.03     0.03  -0.01   0.12    -0.00   0.00   0.00
   7   6    -0.34  -0.25   0.05    -0.00   0.00  -0.00    -0.00   0.00  -0.01
   8   1    -0.13   0.04   0.03    -0.00  -0.00  -0.00    -0.02   0.01  -0.00
   9   1    -0.13   0.04   0.03     0.00   0.00  -0.00     0.02  -0.01  -0.01
  10   1    -0.09   0.03   0.02    -0.00   0.00  -0.01    -0.00   0.00  -0.01
  11   1     0.14   0.04  -0.03     0.13  -0.04   0.63    -0.13   0.04  -0.61
  12   1     0.15  -0.01  -0.03     0.13  -0.04   0.63     0.13  -0.04   0.61
  13   1    -0.08  -0.05   0.01    -0.00   0.00  -0.01     0.00  -0.00   0.01
  14   1    -0.12  -0.07   0.02    -0.00   0.00  -0.00     0.02   0.01   0.00
  15   1    -0.12  -0.07   0.02     0.00   0.00  -0.00    -0.02  -0.01   0.01
                     13                     14                     15
                        a                      a                      a 
 Frequencies --   952.6520               967.9665              1013.7513
 Red. masses --     8.3161                 9.7534                 7.8942
 Frc consts  --     0.0000                 0.0000                 0.0000
 IR Inten    --     8.5929                 1.0010                 7.5252
 Raman Activ --     0.0000                 0.0000                 0.0000
 Depolar     --     0.0000                 0.0000                 0.0000
 Atom AN      X      Y      Z        X      Y      Z        X      Y      Z
   1   6    -0.15  -0.19   0.02    -0.15   0.13   0.04     0.11  -0.22  -0.04
   2   6    -0.00  -0.13  -0.01     0.07  -0.11  -0.02    -0.17  -0.01   0.03
   3   6    -0.01  -0.13  -0.01    -0.14  -0.38   0.00     0.05   0.40   0.02
   4   6     0.04  -0.13  -0.02    -0.22   0.34   0.07    -0.13   0.38   0.05
   5   6     0.03  -0.12  -0.01     0.04   0.12  -0.00     0.17   0.03  -0.03
   6   8    -0.06   0.59   0.05     0.49   0.06  -0.10     0.03  -0.29  -0.02
   7   6     0.18  -0.15  -0.05    -0.12  -0.16   0.02    -0.06  -0.25  -0.00
   8   1     0.17   0.05  -0.05    -0.13  -0.01   0.03     0.19   0.01  -0.05
   9   1     0.18   0.05  -0.02    -0.13  -0.00   0.02     0.20   0.01  -0.03
  10   1    -0.33   0.19   0.08     0.04  -0.04  -0.01    -0.14   0.09   0.03
  11   1    -0.08   0.01   0.02     0.20  -0.25  -0.06     0.30  -0.05  -0.06
  12   1     0.08   0.03  -0.02     0.15   0.29  -0.01    -0.28  -0.11   0.05
  13   1     0.28   0.27  -0.04     0.03   0.05  -0.00     0.12   0.12  -0.02
  14   1    -0.18   0.01   0.06    -0.13  -0.03   0.03    -0.19  -0.04   0.05
  15   1    -0.19   0.01   0.02    -0.13  -0.03   0.02    -0.20  -0.03   0.03
                     16                     17                     18
                        a                      a                      a 
 Frequencies --  1016.6886              1035.7411              1038.3140
 Red. masses --     5.7901                 4.3187                 4.4440
 Frc consts  --     0.0000                 0.0000                 0.0000
 IR Inten    --     0.4454                 0.0058                17.3270
 Raman Activ --     0.0000                 0.0000                 0.0000
 Depolar     --     0.0000                 0.0000                 0.0000
 Atom AN      X      Y      Z        X      Y      Z        X      Y      Z
   1   6    -0.17  -0.26   0.02    -0.06   0.02  -0.30     0.06  -0.02   0.30
   2   6     0.03  -0.06  -0.01     0.05  -0.02   0.23    -0.05   0.02  -0.24
   3   6    -0.05  -0.01   0.01     0.00  -0.00   0.01     0.01  -0.00   0.03
   4   6    -0.05  -0.00   0.01    -0.00   0.00  -0.00     0.01  -0.00   0.03
   5   6     0.02   0.06   0.00    -0.05   0.02  -0.23    -0.05   0.02  -0.24
   6   8     0.39   0.05  -0.08    -0.00   0.00   0.00     0.01  -0.00   0.05
   7   6    -0.22   0.22   0.06     0.06  -0.02   0.30     0.06  -0.02   0.30
   8   1     0.20   0.06  -0.06     0.37  -0.16   0.03    -0.37   0.16  -0.03
   9   1     0.21   0.05  -0.02    -0.32   0.15   0.20     0.32  -0.15  -0.19
  10   1    -0.39   0.22   0.09     0.03  -0.01   0.15    -0.03   0.01  -0.15
  11   1    -0.09   0.04   0.02    -0.01   0.00  -0.03     0.00  -0.00   0.01
  12   1    -0.08  -0.06   0.01     0.01  -0.00   0.03     0.00  -0.00   0.01
  13   1    -0.33  -0.30   0.05    -0.03   0.01  -0.15    -0.03   0.01  -0.15
  14   1     0.21  -0.00  -0.07    -0.33  -0.22  -0.07    -0.33  -0.22  -0.07
  15   1     0.22  -0.01  -0.02     0.28   0.24  -0.16     0.28   0.24  -0.16
                     19                     20                     21
                        a                      a                      a 
 Frequencies --  1052.5294              1177.4888              1243.8006
 Red. masses --     4.2482                 4.6056                11.1509
 Frc consts  --     0.0000                 0.0000                 0.0000
 IR Inten    --    30.7383                 2.7654                43.5950
 Raman Activ --     0.0000                 0.0000                 0.0000
 Depolar     --     0.0000                 0.0000                 0.0000
 Atom AN      X      Y      Z        X      Y      Z        X      Y      Z
   1   6     0.00  -0.09  -0.01     0.09  -0.12  -0.03     0.15   0.04  -0.03
   2   6    -0.03   0.03   0.01    -0.13   0.24   0.04    -0.40  -0.23   0.07
   3   6    -0.17   0.13   0.04    -0.15   0.20   0.04    -0.40   0.03   0.08
   4   6     0.14   0.17  -0.02    -0.11  -0.23   0.01     0.38   0.12  -0.07
   5   6     0.02   0.03  -0.00    -0.08  -0.26  -0.00     0.44  -0.13  -0.10
   6   8     0.04  -0.36  -0.03    -0.06  -0.01   0.01    -0.03   0.27   0.02
   7   6     0.02  -0.09  -0.01     0.06   0.14  -0.00    -0.15   0.01   0.03
   8   1     0.07   0.01  -0.02     0.11   0.02  -0.03     0.02  -0.04   0.02
   9   1     0.07   0.01  -0.01     0.11   0.01  -0.01     0.01  -0.04  -0.03
  10   1    -0.08   0.04   0.02    -0.03   0.02   0.01     0.18  -0.11  -0.04
  11   1    -0.50   0.31   0.12     0.48  -0.25  -0.12    -0.02  -0.06  -0.00
  12   1     0.42   0.42  -0.06     0.42   0.36  -0.06     0.03  -0.05  -0.01
  13   1     0.07   0.06  -0.01    -0.02  -0.02   0.00    -0.15  -0.14   0.02
  14   1    -0.07  -0.01   0.02     0.11   0.01  -0.03    -0.01  -0.04  -0.03
  15   1    -0.07  -0.01   0.01     0.11   0.01  -0.01    -0.00  -0.04   0.02
                     22                     23                     24
                        a                      a                      a 
 Frequencies --  1271.7536              1365.0875              1397.4259
 Red. masses --    12.0836                10.3312                 3.4144
 Frc consts  --     0.0000                 0.0000                 0.0000
 IR Inten    --    13.8661                29.8567                 7.0218
 Raman Activ --     0.0000                 0.0000                 0.0000
 Depolar     --     0.0000                 0.0000                 0.0000
 Atom AN      X      Y      Z        X      Y      Z        X      Y      Z
   1   6     0.17   0.01  -0.03     0.01   0.09   0.00    -0.30   0.10   0.07
   2   6    -0.50  -0.25   0.09    -0.22  -0.26   0.03     0.04   0.02  -0.01
   3   6     0.04   0.14   0.00     0.51   0.10  -0.10     0.01  -0.04  -0.00
   4   6     0.07  -0.13  -0.02    -0.52  -0.02   0.11    -0.00   0.04   0.00
   5   6    -0.53   0.13   0.12     0.27  -0.20  -0.07     0.04  -0.01  -0.01
   6   8     0.44   0.05  -0.09    -0.02   0.16   0.01    -0.01  -0.00   0.00
   7   6     0.16   0.03  -0.03    -0.03   0.09   0.01    -0.28  -0.17   0.05
   8   1     0.04  -0.04   0.02     0.02  -0.05   0.04     0.35  -0.05   0.04
   9   1     0.03  -0.04  -0.03     0.01  -0.04  -0.05     0.31  -0.03  -0.18
  10   1     0.13  -0.07  -0.03     0.11  -0.07  -0.03     0.26  -0.24  -0.07
  11   1    -0.03   0.06   0.01    -0.12   0.19   0.04    -0.02   0.00   0.00
  12   1    -0.02  -0.06  -0.00     0.08   0.22  -0.00    -0.02  -0.01   0.00
  13   1     0.11   0.10  -0.02    -0.10  -0.10   0.01     0.21   0.30  -0.02
  14   1     0.03   0.05   0.02    -0.01  -0.05  -0.05     0.34   0.11   0.06
  15   1     0.02   0.05  -0.03     0.00  -0.05   0.04     0.29   0.12  -0.17
                     25                     26                     27
                        a                      a                      a 
 Frequencies --  1399.2674              1463.4562              1463.9851
 Red. masses --     3.7228                 1.5565                 1.5515
 Frc consts  --     0.0000                 0.0000                 0.0000
 IR Inten    --     0.9871                 0.0360                 8.8583
 Raman Activ --     0.0000                 0.0000                 0.0000
 Depolar     --     0.0000                 0.0000                 0.0000
 Atom AN      X      Y      Z        X      Y      Z        X      Y      Z
   1   6    -0.31   0.08   0.07     0.03  -0.01   0.15     0.03  -0.01   0.15
   2   6     0.08   0.09  -0.01     0.01  -0.00   0.03     0.01  -0.00   0.03
   3   6    -0.03  -0.05   0.00     0.00  -0.00   0.00     0.00  -0.00   0.00
   4   6     0.04  -0.04  -0.01    -0.00  -0.00  -0.00     0.00   0.00   0.00
   5   6    -0.10   0.07   0.02    -0.01   0.00  -0.03     0.01  -0.00   0.03
   6   8     0.00  -0.04  -0.00    -0.00   0.00  -0.00    -0.00   0.00  -0.01
   7   6     0.28   0.15  -0.05    -0.03   0.01  -0.15     0.03  -0.01   0.15
   8   1     0.36  -0.03   0.03     0.26   0.19  -0.10     0.25   0.18  -0.09
   9   1     0.31  -0.02  -0.18    -0.28  -0.18  -0.01    -0.27  -0.17  -0.01
  10   1     0.25  -0.23  -0.07    -0.11   0.03  -0.51    -0.10   0.03  -0.49
  11   1     0.01  -0.03  -0.00    -0.00   0.00  -0.00    -0.00   0.00  -0.00
  12   1    -0.01  -0.03  -0.00     0.00   0.00   0.00    -0.00   0.00  -0.00
  13   1    -0.20  -0.28   0.02     0.10  -0.03   0.49    -0.11   0.03  -0.51
  14   1    -0.34  -0.10  -0.04    -0.28   0.11   0.12     0.29  -0.11  -0.12
  15   1    -0.30  -0.11   0.16     0.30  -0.11  -0.02    -0.31   0.12   0.02
                     28                     29                     30
                        a                      a                      a 
 Frequencies --  1473.1819              1474.2568              1565.1833
 Red. masses --     2.0059                 1.6982                11.3207
 Frc consts  --     0.0000                 0.0000                 0.0000
 IR Inten    --    16.5610                 0.0137                33.1407
 Raman Activ --     0.0000                 0.0000                 0.0000
 Depolar     --     0.0000                 0.0000                 0.0000
 Atom AN      X      Y      Z        X      Y      Z        X      Y      Z
   1   6    -0.02  -0.15  -0.01    -0.04  -0.15  -0.00     0.13  -0.06  -0.03
   2   6    -0.10   0.05   0.02    -0.05   0.02   0.01    -0.37   0.43   0.10
   3   6     0.06  -0.06  -0.02     0.03  -0.06  -0.01     0.13  -0.31  -0.05
   4   6    -0.05  -0.07   0.01     0.02   0.06  -0.00    -0.06  -0.33  -0.01
   5   6     0.09   0.07  -0.01    -0.04  -0.03   0.01     0.27   0.51  -0.02
   6   8    -0.00   0.00   0.00     0.02   0.00  -0.00     0.01  -0.06  -0.01
   7   6     0.05  -0.15  -0.02    -0.07   0.13   0.02    -0.12  -0.09   0.02
   8   1    -0.04   0.38  -0.23    -0.04   0.39  -0.24     0.06  -0.08   0.03
   9   1     0.06   0.34   0.27     0.06   0.36   0.28     0.04  -0.07  -0.06
  10   1     0.17  -0.15  -0.04     0.17  -0.16  -0.05    -0.05   0.05   0.01
  11   1    -0.02   0.00   0.01    -0.03   0.01   0.01    -0.05  -0.05   0.01
  12   1     0.02   0.01  -0.00    -0.03  -0.01   0.01     0.06  -0.04  -0.02
  13   1    -0.13  -0.19   0.02     0.13   0.19  -0.02     0.04   0.06  -0.00
  14   1    -0.03   0.34   0.30     0.03  -0.34  -0.29    -0.05  -0.08  -0.05
  15   1    -0.14   0.37  -0.21     0.14  -0.37   0.21    -0.03  -0.09   0.05
                     31                     32                     33
                        a                      a                      a 
 Frequencies --  1623.5492              2999.7433              3000.1350
 Red. masses --    11.4294                 1.9398                 1.9399
 Frc consts  --     0.0000                 0.0000                 0.0000
 IR Inten    --    15.3437                 0.4603                41.6096
 Raman Activ --     0.0000                 0.0000                 0.0000
 Depolar     --     0.0000                 0.0000                 0.0000
 Atom AN      X      Y      Z        X      Y      Z        X      Y      Z
   1   6    -0.09   0.05   0.02     0.05  -0.01   0.22     0.04  -0.01   0.18
   2   6     0.26  -0.44  -0.08     0.00  -0.00   0.00     0.00  -0.00   0.00
   3   6    -0.19   0.39   0.07     0.00  -0.00   0.00     0.00  -0.00   0.00
   4   6    -0.11  -0.42  -0.01    -0.00   0.00  -0.00     0.00  -0.00   0.00
   5   6     0.17   0.49  -0.00    -0.00   0.00  -0.00     0.00  -0.00   0.00
   6   8    -0.01  -0.00   0.00    -0.00   0.00  -0.00    -0.00   0.00  -0.00
   7   6    -0.08  -0.07   0.01    -0.04   0.01  -0.18     0.05  -0.01   0.22
   8   1    -0.04   0.05  -0.02     0.00  -0.28  -0.44     0.00  -0.23  -0.36
   9   1    -0.03   0.04   0.04    -0.17   0.34  -0.37    -0.14   0.27  -0.30
  10   1     0.03  -0.03  -0.01     0.01  -0.00   0.03     0.01  -0.00   0.03
  11   1     0.12   0.02  -0.02     0.00   0.00   0.00    -0.00   0.00  -0.00
  12   1     0.12   0.01  -0.02    -0.00   0.00  -0.00    -0.00  -0.00  -0.00
  13   1     0.03   0.04  -0.00    -0.01   0.00  -0.03     0.01  -0.00   0.03
  14   1    -0.03  -0.05  -0.03     0.05  -0.28   0.32    -0.06   0.35  -0.39
  15   1    -0.02  -0.05   0.03     0.09   0.24   0.34    -0.10  -0.29  -0.42
                     34                     35                     36
                        a                      a                      a 
 Frequencies --  3014.0890              3015.2786              3061.0775
 Red. masses --     1.4711                 1.4642                 1.7298
 Frc consts  --     0.0000                 0.0000                 0.0000
 IR Inten    --    16.9716                35.9374                17.6527
 Raman Activ --     0.0000                 0.0000                 0.0000
 Depolar     --     0.0000                 0.0000                 0.0000
 Atom AN      X      Y      Z        X      Y      Z        X      Y      Z
   1   6    -0.04   0.14   0.02    -0.04   0.14   0.02    -0.11  -0.14   0.01
   2   6    -0.01   0.01   0.00    -0.01   0.01   0.00    -0.00  -0.00   0.00
   3   6     0.00  -0.00  -0.00     0.00  -0.00  -0.00     0.00   0.00  -0.00
   4   6     0.00   0.00  -0.00    -0.00  -0.00  -0.00     0.00  -0.00  -0.00
   5   6    -0.01  -0.01   0.00     0.00   0.01  -0.00    -0.00   0.00   0.00
   6   8     0.00   0.00  -0.00     0.00  -0.00  -0.00     0.00   0.00  -0.00
   7   6    -0.01  -0.14  -0.01     0.01   0.14   0.01    -0.14   0.11   0.04
   8   1    -0.01  -0.23  -0.43    -0.01  -0.23  -0.43    -0.01  -0.02   0.01
   9   1     0.16  -0.28   0.36     0.16  -0.29   0.37    -0.02  -0.02  -0.00
  10   1     0.00   0.02   0.00     0.00   0.03   0.00     0.42   0.54  -0.05
  11   1    -0.00  -0.00  -0.00     0.00   0.00  -0.00    -0.01  -0.01   0.00
  12   1    -0.00   0.00   0.00    -0.00  -0.00   0.00    -0.01   0.01   0.00
  13   1     0.01  -0.02  -0.00    -0.01   0.03   0.00     0.51  -0.42  -0.13
  14   1    -0.06   0.30  -0.39     0.06  -0.30   0.38    -0.02   0.01   0.01
  15   1     0.10   0.24   0.41    -0.10  -0.24  -0.41    -0.02   0.01  -0.00
                     37                     38                     39
                        a                      a                      a 
 Frequencies --  3061.5828              3174.0918              3183.9950
 Red. masses --     1.7332                 1.8452                 1.9518
 Frc consts  --     0.0000                 0.0000                 0.0000
 IR Inten    --    14.9258                25.9123                24.7876
 Raman Activ --     0.0000                 0.0000                 0.0000
 Depolar     --     0.0000                 0.0000                 0.0000
 Atom AN      X      Y      Z        X      Y      Z        X      Y      Z
   1   6    -0.11  -0.14   0.01     0.00   0.00  -0.00     0.00   0.00  -0.00
   2   6    -0.00  -0.01   0.00     0.01  -0.01  -0.00     0.01  -0.01  -0.00
   3   6     0.00   0.00  -0.00     0.09   0.17  -0.01     0.10   0.18  -0.01
   4   6    -0.00   0.00   0.00     0.12  -0.15  -0.04    -0.14   0.15   0.04
   5   6     0.00  -0.00  -0.00     0.01   0.01  -0.00    -0.01  -0.01   0.00
   6   8    -0.00   0.00   0.00    -0.00  -0.00   0.00     0.00  -0.00  -0.00
   7   6     0.14  -0.12  -0.04     0.00  -0.00  -0.00    -0.00   0.00   0.00
   8   1    -0.01  -0.01   0.01    -0.00   0.00   0.00    -0.00  -0.00  -0.00
   9   1    -0.02  -0.01  -0.01    -0.00   0.00  -0.00     0.00  -0.00   0.00
  10   1     0.41   0.53  -0.05    -0.01  -0.01   0.00    -0.01  -0.01   0.00
  11   1    -0.00  -0.01   0.00    -0.34  -0.59   0.03    -0.34  -0.59   0.03
  12   1     0.01  -0.01  -0.00    -0.45   0.50   0.13     0.45  -0.49  -0.13
  13   1    -0.52   0.43   0.14    -0.01   0.01   0.00     0.01  -0.00  -0.00
  14   1     0.02  -0.01  -0.01     0.00  -0.00   0.00     0.00  -0.00   0.00
  15   1     0.02  -0.01   0.00    -0.00  -0.00  -0.00    -0.00  -0.00  -0.00
