15
 energy: -20.987607802059 gnorm: 0.000079815295 xtb: 6.7.1pre (5071a88)
C            2.43659844319522       -0.35345107602985       -0.53030196582999
C            1.06476502261156        0.12499630859451       -0.21320294373070
C            0.55958350762092        1.37452835480718       -0.02524604045732
C           -0.82277907250711        1.20952321853429        0.25137023982026
C           -1.06434230541142       -0.12914369683986        0.21283983429997
O            0.08086282740568       -0.79390816010065       -0.06947315639219
C           -2.30692677355780       -0.91965986180905        0.41889482858999
H            2.44025456627302       -0.90594158958334       -1.46939455242588
H            2.79833309923005       -1.02008249786284        0.25194147339484
H            3.10876661666311        0.49515944538006       -0.61385759507733
H            1.09821650957979        2.29877164118968       -0.07599681185379
H           -1.53448640167841        1.98452014535071        0.45081758034699
H           -3.13373936995405       -0.24997636088002        0.63531190210922
H           -2.18351174767487       -1.61475386854562        1.24881474966285
H           -2.54159292179571       -1.50058000220520       -0.47251854245692
