      -----------------------------------------------------------      
     |                   =====================                   |     
     |                           x T B                           |     
     |                   =====================                   |     
     |                         S. Grimme                         |     
     |          Mulliken Center for Theoretical Chemistry        |     
     |                    University of Bonn                     |     
      -----------------------------------------------------------      

   * xtb version 6.7.1pre (5071a88) compiled by 'Marcel@Raven' on 2024-07-23

   xtb is free software: you can redistribute it and/or modify it under
   the terms of the GNU Lesser General Public License as published by
   the Free Software Foundation, either version 3 of the License, or
   (at your option) any later version.
   
   xtb is distributed in the hope that it will be useful,
   but WITHOUT ANY WARRANTY; without even the implied warranty of
   MERCHANTABILITY or FITNESS FOR A PARTICULAR PURPOSE.  See the
   GNU Lesser General Public License for more details.
   
   Cite this work as:
   * C. Bannwarth, E. Caldeweyher, S. Ehlert, A. Hansen, P. Pracht,
     J. Seibert, S. Spicher, S. Grimme, WIREs Comput. Mol. Sci., 2020, 11,
     e01493. DOI: 10.1002/wcms.1493
   
   for GFN2-xTB:
   * C. Bannwarth, S. Ehlert and S. Grimme., J. Chem. Theory Comput., 2019,
     15, 1652-1671. DOI: 10.1021/acs.jctc.8b01176
   for GFN1-xTB:
   * S. Grimme, C. Bannwarth, P. Shushkov, J. Chem. Theory Comput., 2017,
     13, 1989-2009. DOI: 10.1021/acs.jctc.7b00118
   for GFN0-xTB:
   * P. Pracht, E. Caldeweyher, S. Ehlert, S. Grimme, ChemRxiv, 2019, preprint.
     DOI: 10.26434/chemrxiv.8326202.v1
   for GFN-FF:
   * S. Spicher and S. Grimme, Angew. Chem. Int. Ed., 2020, 59, 15665-15673.
     DOI: 10.1002/anie.202004239
   
   for ALPB and GBSA implicit solvation:
   * S. Ehlert, M. Stahn, S. Spicher, S. Grimme, J. Chem. Theory Comput.,
     2021, 17, 4250-4261. DOI: 10.1021/acs.jctc.1c00471
   
   for ddCOSMO and CPCM-X implicit solvation:
   * M. Stahn, S. Ehlert, S. Grimme, J. Phys. Chem. A,
     2023, XX, XXXX-XXXX. DOI: 10.1021/acs.jpca.3c04382
   
   for DFT-D4:
   * E. Caldeweyher, C. Bannwarth and S. Grimme, J. Chem. Phys., 2017,
     147, 034112. DOI: 10.1063/1.4993215
   * E. Caldeweyher, S. Ehlert, A. Hansen, H. Neugebauer, S. Spicher,
     C. Bannwarth and S. Grimme, J. Chem. Phys., 2019, 150, 154122.
     DOI: 10.1063/1.5090222
   * E. Caldeweyher, J.-M. Mewes, S. Ehlert and S. Grimme, Phys. Chem. Chem. Phys.
     2020, 22, 8499-8512. DOI: 10.1039/D0CP00502A
   
   for sTDA-xTB:
   * S. Grimme and C. Bannwarth, J. Chem. Phys., 2016, 145, 054103.
     DOI: 10.1063/1.4959605
   
   in the mass-spec context:
   * V. Asgeirsson, C. Bauer and S. Grimme, Chem. Sci., 2017, 8, 4879.
     DOI: 10.1039/c7sc00601b
   * J. Koopman and S. Grimme, ACS Omega 2019, 4, 12, 15120-15133.
     DOI: 10.1021/acsomega.9b02011
   
   for metadynamics refer to:
   * S. Grimme, J. Chem. Theory Comput., 2019, 155, 2847-2862
     DOI: 10.1021/acs.jctc.9b00143
   
   for SPH calculations refer to:
   * S. Spicher and S. Grimme, J. Chem. Theory Comput., 2021, 17, 1701-1714
     DOI: 10.1021/acs.jctc.0c01306
   
   for ONIOM refer to:
   * C. Plett, A. Katbashev, S. Ehlert, S. Grimme, M. Bursch,
     Phys. Chem. Chem. Phys., 2023, 25, 17860-17868. DOI: 10.1039/D3CP02178E
   
   for DIPRO refer to:
   * J. Kohn, N. Gildemeister, S. Grimme, D. Fazzi, A. Hansen,
     J. Chem. Phys., 2023, just accepted.
   
   for PTB refer to:
   * S. Grimme, M. Mueller, A. Hansen, J. Chem. Phys., 2023, 158, 124111.
     DOI: 10.1063/5.0137838
   
   with help from (in alphabetical order)
   P. Atkinson, C. Bannwarth, F. Bohle, G. Brandenburg, E. Caldeweyher
   M. Checinski, S. Dohm, S. Ehlert, S. Ehrlich, I. Gerasimov, C. Hölzer
   A. Katbashev, J. Kohn, J. Koopman, C. Lavigne, S. Lehtola, F. März, M. Müller,
   F. Musil, H. Neugebauer, J. Pisarek, C. Plett, P. Pracht, F. Pultar,
   J. Seibert, P. Shushkov, S. Spicher, M. Stahn, M. Steiner, T. Strunk,
   J. Stückrath, T. Rose, and J. Unsleber
   
 * started run on 2026/09/17 at 00:40:30.429     
   ID    Z sym.   atoms
    1    6 C      1-5, 7
    2    8 O      6
    3    1 H      8-15

           -------------------------------------------------
          |                Calculation Setup                |
           -------------------------------------------------

          program call               : C:\ORCA_6.1.1\xtb-6.7.1pre\xtb.exe optimized.xyz --gfn 2 --chrg 0 --uhf 0 --hess --json
          coordinate file            : optimized.xyz
          omp threads                :                     4


           -------------------------------------------------
          |                 G F N 2 - x T B                 |
           -------------------------------------------------

        Reference                      10.1021/acs.jctc.8b01176
      * Hamiltonian:
        H0-scaling (s, p, d)           1.850000    2.230000    2.230000
        zeta-weighting                 0.500000
      * Dispersion:
        s8                             2.700000
        a1                             0.520000
        a2                             5.000000
        s9                             5.000000
      * Repulsion:
        kExp                           1.500000    1.000000
        rExp                           1.000000
      * Coulomb:
        alpha                          2.000000
        third order                    shell-resolved
        anisotropic                    true
        a3                             3.000000
        a5                             4.000000
        cn-shift                       1.200000
        cn-exp                         4.000000
        max-rad                        5.000000


          ...................................................
          :                      SETUP                      :
          :.................................................:
          :  # basis functions                  36          :
          :  # atomic orbitals                  36          :
          :  # shells                           22          :
          :  # electrons                        38          :
          :  max. iterations                   250          :
          :  Hamiltonian                  GFN2-xTB          :
          :  restarted?                      false          :
          :  GBSA solvation                  false          :
          :  PC potential                    false          :
          :  electronic temp.          300.0000000     K    :
          :  accuracy                    1.0000000          :
          :  -> integral cutoff          0.2500000E+02      :
          :  -> integral neglect         0.1000000E-07      :
          :  -> SCF convergence          0.1000000E-05 Eh   :
          :  -> wf. convergence          0.1000000E-03 e    :
          :  Broyden damping             0.4000000          :
          :  net charge                          0          :
          :  unpaired electrons                  0          :
          ...................................................

 iter      E             dE          RMSdq      gap      omega  full diag
   1    -21.2701500 -0.212702E+02  0.352E+00    4.77       0.0  T
   2    -21.2891209 -0.189709E-01  0.233E+00    4.65       1.0  T
   3    -21.2866487  0.247224E-02  0.114E+00    4.71       1.0  T
   4    -21.2966493 -0.100006E-01  0.277E-01    4.61       1.0  T
   5    -21.2969286 -0.279378E-03  0.663E-02    4.62       1.0  T
   6    -21.2969357 -0.709015E-05  0.261E-02    4.62       1.0  T
   7    -21.2969360 -0.249410E-06  0.740E-03    4.62       3.5  T
   8    -21.2969361 -0.110045E-06  0.142E-03    4.62      18.1  T
   9    -21.2969361 -0.245497E-08  0.197E-04    4.62     130.9  T
  10    -21.2969361 -0.559602E-09  0.453E-05    4.62     570.4  T

   *** convergence criteria satisfied after 10 iterations ***

         #    Occupation            Energy/Eh            Energy/eV
      -------------------------------------------------------------
         1        2.0000           -0.7243374             -19.7102
       ...           ...                  ...                  ...
        13        2.0000           -0.4744712             -12.9110
        14        2.0000           -0.4667845             -12.7019
        15        2.0000           -0.4633206             -12.6076
        16        2.0000           -0.4511533             -12.2765
        17        2.0000           -0.4414833             -12.0134
        18        2.0000           -0.4103739             -11.1668
        19        2.0000           -0.3653261              -9.9410 (HOMO)
        20                         -0.1956240              -5.3232 (LUMO)
        21                         -0.1443729              -3.9286
        22                          0.0665833               1.8118
        23                          0.1092306               2.9723
        24                          0.1355829               3.6894
       ...                                ...                  ...
        36                          0.7118300              19.3699
      -------------------------------------------------------------
                  HL-Gap            0.1697020 Eh            4.6178 eV
             Fermi-level           -0.2804750 Eh           -7.6321 eV

 SCC (total)                   0 d,  0 h,  0 min,  0.005 sec
 SCC setup                      ...        0 min,  0.000 sec (  0.000%)
 Dispersion                     ...        0 min,  0.000 sec (  0.000%)
 classical contributions        ...        0 min,  0.000 sec (  0.000%)
 integral evaluation            ...        0 min,  0.000 sec (  0.000%)
 iterations                     ...        0 min,  0.004 sec ( 80.002%)
 molecular gradient             ...        0 min,  0.001 sec ( 19.998%)
 printout                       ...        0 min,  0.000 sec (  0.000%)

         :::::::::::::::::::::::::::::::::::::::::::::::::::::
         ::                     SUMMARY                     ::
         :::::::::::::::::::::::::::::::::::::::::::::::::::::
         :: total energy             -20.987607802059 Eh    ::
         :: gradient norm              0.000079853498 Eh/a0 ::
         :: HOMO-LUMO gap              4.617827407524 eV    ::
         ::.................................................::
         :: SCC energy               -21.296926011603 Eh    ::
         :: -> isotropic ES            0.012397733129 Eh    ::
         :: -> anisotropic ES          0.003105149236 Eh    ::
         :: -> anisotropic XC          0.007733037268 Eh    ::
         :: -> dispersion             -0.009240931488 Eh    ::
         :: repulsion energy           0.309318209543 Eh    ::
         :: add. restraining           0.000000000000 Eh    ::
         :: total charge              -0.000000000000 e     ::
         :::::::::::::::::::::::::::::::::::::::::::::::::::::

           ------------------------------------------------- 
          |                Numerical Hessian                |
           ------------------------------------------------- 
step length          :   0.00500
SCC accuracy         :   0.30000
Hessian scale factor :   1.00000
frozen atoms in %    :   0.00000    0
RMS gradient         :   0.00008
estimated CPU  time      0.03 min
estimated wall time      0.01 min

writing file <hessian>.

 projected vibrational frequencies (cm⁻¹)
eigval :       -0.00    -0.00     0.00     0.00     0.00     0.00
eigval :       60.36    64.37   186.90   242.50   287.56   375.72
eigval :      588.20   602.81   611.24   704.69   813.67   832.63
eigval :      952.65   967.97  1013.75  1016.69  1035.74  1038.31
eigval :     1052.53  1177.49  1243.80  1271.75  1365.09  1397.43
eigval :     1399.27  1463.46  1463.99  1473.18  1474.26  1565.18
eigval :     1623.55  2999.74  3000.13  3014.09  3015.28  3061.08
eigval :     3061.58  3174.09  3184.00
           -------------------------------------------------
          |                Property Printout                |
           -------------------------------------------------

    * Orbital Energies and Occupations

         #    Occupation            Energy/Eh            Energy/eV
      -------------------------------------------------------------
         1        2.0000           -0.7243375             -19.7102
       ...           ...                  ...                  ...
         7        2.0000           -0.5588859             -15.2081
         8        2.0000           -0.5544698             -15.0879
         9        2.0000           -0.5258939             -14.3103
        10        2.0000           -0.4906481             -13.3512
        11        2.0000           -0.4905004             -13.3472
        12        2.0000           -0.4852150             -13.2034
        13        2.0000           -0.4744712             -12.9110
        14        2.0000           -0.4667844             -12.7019
        15        2.0000           -0.4633206             -12.6076
        16        2.0000           -0.4511533             -12.2765
        17        2.0000           -0.4414833             -12.0134
        18        2.0000           -0.4103740             -11.1668
        19        2.0000           -0.3653261              -9.9410 (HOMO)
        20                         -0.1956241              -5.3232 (LUMO)
        21                         -0.1443729              -3.9286
        22                          0.0665833               1.8118
        23                          0.1092306               2.9723
        24                          0.1355829               3.6894
        25                          0.1542122               4.1963
        26                          0.1749721               4.7612
        27                          0.1756907               4.7808
        28                          0.2122276               5.7750
        29                          0.2193064               5.9676
        30                          0.2196012               5.9757
       ...                                ...                  ...
        36                          0.7118300              19.3699
      -------------------------------------------------------------
                  HL-Gap            0.1697020 Eh            4.6178 eV
             Fermi-level           -0.2804751 Eh           -7.6321 eV

     #   Z          covCN         q      C6AA      α(0)
     1   6 C        3.753    -0.114    22.740     6.800
     2   6 C        3.084     0.107    25.548     8.286
     3   6 C        3.013    -0.080    29.974     8.981
     4   6 C        3.013    -0.080    29.974     8.981
     5   6 C        3.084     0.107    25.548     8.286
     6   8 O        1.731    -0.210    17.489     5.647
     7   6 C        3.753    -0.114    22.740     6.800
     8   1 H        0.925     0.056     2.242     2.342
     9   1 H        0.925     0.056     2.242     2.342
    10   1 H        0.925     0.051     2.310     2.377
    11   1 H        0.926     0.028     2.611     2.527
    12   1 H        0.926     0.028     2.611     2.527
    13   1 H        0.925     0.051     2.310     2.377
    14   1 H        0.925     0.056     2.242     2.342
    15   1 H        0.925     0.056     2.242     2.342

 Mol. C6AA /au·bohr⁶  :       2203.803450
 Mol. C8AA /au·bohr⁸  :      50860.163341
 Mol. α(0) /au        :         72.954180


Wiberg/Mayer (AO) data.
largest (>0.10) Wiberg bond orders for each atom

 ---------------------------------------------------------------------------
     #   Z sym  total        # sym  WBO       # sym  WBO       # sym  WBO
 ---------------------------------------------------------------------------
     1   6 C    3.995 --     2 C    1.028    10 H    0.985     8 H    0.971
                             9 H    0.971
     2   6 C    3.910 --     3 C    1.593     6 O    1.106     1 C    1.028
                             5 C    0.133
     3   6 C    3.980 --     2 C    1.593     4 C    1.273    11 H    0.975
     4   6 C    3.980 --     5 C    1.593     3 C    1.273    12 H    0.975
     5   6 C    3.910 --     4 C    1.593     6 O    1.106     7 C    1.028
                             2 C    0.133
     6   8 O    2.411 --     2 C    1.106     5 C    1.106
     7   6 C    3.995 --     5 C    1.028    13 H    0.985    14 H    0.971
                            15 H    0.971
     8   1 H    0.997 --     1 C    0.971
     9   1 H    0.997 --     1 C    0.971
    10   1 H    0.997 --     1 C    0.985
    11   1 H    0.999 --     3 C    0.975
    12   1 H    0.999 --     4 C    0.975
    13   1 H    0.997 --     7 C    0.985
    14   1 H    0.997 --     7 C    0.971
    15   1 H    0.997 --     7 C    0.971
 ---------------------------------------------------------------------------

Topologies differ in total number of bonds
Writing topology from bond orders to xtbtopo.mol

molecular dipole:
                 x           y           z       tot (Debye)
 q only:        0.009      -0.086      -0.008
   full:        0.009      -0.086      -0.008       0.221
molecular quadrupole (traceless):
                xx          xy          yy          xz          yz          zz
 q only:        4.264       0.795      -2.333      -1.289      -0.175      -1.930
  q+dip:        3.419       0.542      -0.745      -1.288       0.033      -2.674
   full:        3.718       0.679      -1.868      -1.162      -0.127      -1.850

           -------------------------------------------------
          |               Frequency Printout                |
           -------------------------------------------------
 projected vibrational frequencies (cm⁻¹)
eigval :       -0.00    -0.00     0.00     0.00     0.00     0.00
eigval :       60.36    64.37   186.90   242.50   287.56   375.72
eigval :      588.20   602.81   611.24   704.69   813.67   832.63
eigval :      952.65   967.97  1013.75  1016.69  1035.74  1038.31
eigval :     1052.53  1177.49  1243.80  1271.75  1365.09  1397.43
eigval :     1399.27  1463.46  1463.99  1473.18  1474.26  1565.18
eigval :     1623.55  2999.74  3000.13  3014.09  3015.28  3061.08
eigval :     3061.58  3174.09  3184.00
 reduced masses (amu)
   1: 10.48   2: 10.09   3: 11.31   4: 10.97   5: 11.48   6: 10.15   7:  1.07   8:  1.70
   9: 10.75  10:  8.59  11:  9.12  12:  9.24  13: 10.24  14: 12.18  15: 10.64  16: 10.52
  17:  2.82  18:  3.31  19:  8.32  20:  9.75  21:  7.89  22:  5.79  23:  4.32  24:  4.44
  25:  4.25  26:  4.61  27: 11.15  28: 12.08  29: 10.33  30:  3.41  31:  3.72  32:  1.56
  33:  1.55  34:  2.01  35:  1.70  36: 11.32  37: 11.43  38:  1.94  39:  1.94  40:  1.47
  41:  1.46  42:  1.73  43:  1.73  44:  1.85  45:  1.95
 IR intensities (km·mol⁻¹)
   1:  0.00   2:  0.03   3:  0.00   4:  0.01   5:  0.01   6:  0.02   7:  0.00   8:  0.07
   9:  3.19  10:  1.68  11:  0.01  12:  0.89  13:  0.00  14:  1.37  15:  0.01  16:  0.40
  17: 12.48  18:  0.00  19:  8.59  20:  1.00  21:  7.53  22:  0.45  23:  0.01  24: 17.33
  25: 30.74  26:  2.77  27: 43.60  28: 13.87  29: 29.86  30:  7.02  31:  0.99  32:  0.04
  33:  8.86  34: 16.56  35:  0.01  36: 33.14  37: 15.34  38:  0.46  39: 41.61  40: 16.97
  41: 35.94  42: 17.65  43: 14.93  44: 25.91  45: 24.79
 Raman intensities (Ä⁴*amu⁻¹)
   1:  0.00   2:  0.00   3:  0.00   4:  0.00   5:  0.00   6:  0.00   7:  0.00   8:  0.00
   9:  0.00  10:  0.00  11:  0.00  12:  0.00  13:  0.00  14:  0.00  15:  0.00  16:  0.00
  17:  0.00  18:  0.00  19:  0.00  20:  0.00  21:  0.00  22:  0.00  23:  0.00  24:  0.00
  25:  0.00  26:  0.00  27:  0.00  28:  0.00  29:  0.00  30:  0.00  31:  0.00  32:  0.00
  33:  0.00  34:  0.00  35:  0.00  36:  0.00  37:  0.00  38:  0.00  39:  0.00  40:  0.00
  41:  0.00  42:  0.00  43:  0.00  44:  0.00  45:  0.00
 output can be read by thermo (or use thermo option).
 writing <g98.out> molden fake output.
 recommended (thermochemical) frequency scaling factor: 1.0
           -------------------------------------------------
          |             Thermodynamic Functions             |
           -------------------------------------------------

Molecule has the following symmetry elements: (C2) 2*(sigma) 
It seems to be the C2v point group
c2v symmetry found (for desy threshold:  0.10E+00) used in thermo

          ...................................................
          :                      SETUP                      :
          :.................................................:
          :  # frequencies                          39      :
          :  # imaginary freq.                       0      :
          :  linear?                             false      :
          :  only rotor calc.                    false      :
          :  symmetry                              c2v      :
          :  rotational number                       2      :
          :  scaling factor                  1.0000000      :
          :  rotor cutoff                   50.0000000 cm⁻¹ :
          :  imag. cutoff                  -20.0000000 cm⁻¹ :
          :.................................................:

    mode    ω/cm⁻¹     T·S(HO)/kcal·mol⁻¹    T·S(FR)/kcal·mol⁻¹   T·S(vib)
   ------------------------------------------------------------------------
       1     60.36    -1.32541 ( 67.99%)    -1.00038 ( 32.01%)    -1.22135
       2     64.37    -1.28754 ( 73.32%)    -0.98133 ( 26.68%)    -1.20583
       3    186.90    -0.67332 ( 99.49%)    -0.66581 (  0.51%)    -0.67329
       4    242.50    -0.53204 ( 99.82%)    -0.58869 (  0.18%)    -0.53214
       5    287.56    -0.44373 ( 99.91%)    -0.53822 (  0.09%)    -0.44381
   ------------------------------------------------------------------------

   temp. (K)  partition function   enthalpy   heat capacity  entropy
                                   cal/mol     cal/K/mol   cal/K/mol   J/K/mol
 298.15  VIB   78.7                 2853.535     19.257     17.624
         ROT  0.928E+05              888.752      2.981     25.711
         INT  0.730E+07             3742.287     22.238     43.336
         TR   0.912E+27             1481.254      4.968     39.582
         TOT                        5223.5410    27.2057    82.9179   346.9285

       T/K    H(0)-H(T)+PV         H(T)/Eh          T*S/Eh         G(T)/Eh
   ------------------------------------------------------------------------
    298.15    0.832424E-02    0.131064E+00    0.393970E-01    0.916675E-01
   ------------------------------------------------------------------------

         :::::::::::::::::::::::::::::::::::::::::::::::::::::
         ::                  THERMODYNAMIC                  ::
         :::::::::::::::::::::::::::::::::::::::::::::::::::::
         :: total free energy         -20.895940317824 Eh   ::
         ::.................................................::
         :: total energy              -20.987607802060 Eh   ::
         :: zero point energy           0.122740210031 Eh   ::
         :: G(RRHO) w/o ZPVE           -0.031072725795 Eh   ::
         :: G(RRHO) contrib.            0.091667484236 Eh   ::
         :::::::::::::::::::::::::::::::::::::::::::::::::::::

           -------------------------------------------------
          | TOTAL ENERGY              -20.987607802060 Eh   |
          | TOTAL ENTHALPY            -20.856543349580 Eh   |
          | TOTAL FREE ENERGY         -20.895940317824 Eh   |
          | GRADIENT NORM               0.000079850608 Eh/α |
          | HOMO-LUMO GAP               4.617826505770 eV   |
           -------------------------------------------------

------------------------------------------------------------------------
 * finished run on 2026/09/17 at 00:40:30.615     
------------------------------------------------------------------------
 total:
 * wall-time:     0 d,  0 h,  0 min,  0.184 sec
 *  cpu-time:     0 d,  0 h,  0 min,  0.703 sec
 * ratio c/w:     3.821 speedup
 SCF:
 * wall-time:     0 d,  0 h,  0 min,  0.005 sec
 *  cpu-time:     0 d,  0 h,  0 min,  0.000 sec
 * ratio c/w:     0.000 speedup
 analytical hessian:
 * wall-time:     0 d,  0 h,  0 min,  0.158 sec
 *  cpu-time:     0 d,  0 h,  0 min,  0.578 sec
 * ratio c/w:     3.659 speedup

