17
Coordinates from ORCA-job optfreq E -421.911573546619
  C      -2.654972     -0.157793      0.152861
  O      -1.585382      0.743294      0.023118
  C      -0.304824      0.231640     -0.002776
  C       0.033207     -1.106214      0.088279
  C       1.367544     -1.487304      0.048923
  C       2.361898     -0.538583     -0.080730
  C       2.032776      0.804096     -0.172647
  C       0.706862      1.198419     -0.134813
  O       0.386299      2.516076     -0.225145
  H      -2.596746     -0.715378      1.093029
  H      -3.557275      0.452124      0.150807
  H      -2.690565     -0.860163     -0.685958
  H      -0.730104     -1.861485      0.190004
  H       1.618585     -2.534521      0.120912
  H       3.398209     -0.837686     -0.111041
  H       2.791232      1.563513     -0.274453
  H      -0.576746      2.589966     -0.180369
17
Coordinates from ORCA-job optfreq E -421.912187942468
  C      -2.654988     -0.159861      0.153233
  O      -1.578915      0.751466      0.021723
  C      -0.304933      0.235548     -0.003457
  C       0.026256     -1.108459      0.088365
  C       1.365924     -1.494412      0.049318
  C       2.363992     -0.540351     -0.080716
  C       2.034107      0.809222     -0.172998
  C       0.706032      1.203758     -0.135283
  O       0.388145      2.524680     -0.225885
  H      -2.593953     -0.720016      1.096476
  H      -3.564960      0.443466      0.151564
  H      -2.687864     -0.866610     -0.687378
  H      -0.745669     -1.863706      0.190532
  H       1.617559     -2.547694      0.121884
  H       3.406558     -0.840584     -0.110989
  H       2.797595      1.574224     -0.275171
  H      -0.574885      2.599330     -0.181216
17
Coordinates from ORCA-job optfreq E -421.912231403428
  C      -2.656417     -0.160009      0.153352
  O      -1.576503      0.754012      0.021185
  C      -0.305153      0.235296     -0.003548
  C       0.024591     -1.110572      0.088501
  C       1.366418     -1.496819      0.049365
  C       2.364520     -0.540677     -0.080723
  C       2.034023      0.810557     -0.173098
  C       0.705354      1.203990     -0.135302
  O       0.388590      2.526119     -0.225974
  H      -2.593020     -0.719315      1.096709
  H      -3.566860      0.442162      0.151539
  H      -2.686870     -0.866527     -0.687277
  H      -0.748317     -1.864574      0.190717
  H       1.618992     -2.550025      0.121922
  H       3.407653     -0.839965     -0.111026
  H       2.797533      1.576029     -0.275205
  H      -0.574534      2.600318     -0.181135
17
Coordinates from ORCA-job optfreq E -421.912237802070
  C      -2.657284     -0.160280      0.153445
  O      -1.576062      0.754837      0.020948
  C      -0.305486      0.234870     -0.003586
  C       0.024138     -1.111262      0.088503
  C       1.366532     -1.497068      0.049329
  C       2.364288     -0.540613     -0.080713
  C       2.033850      0.810821     -0.173085
  C       0.705090      1.203525     -0.135259
  O       0.388645      2.526000     -0.225950
  H      -2.591771     -0.718395      1.096945
  H      -3.567168      0.442251      0.151430
  H      -2.685650     -0.866017     -0.687443
  H      -0.748875     -1.864802      0.190711
  H       1.619621     -2.549949      0.121840
  H       3.407382     -0.839501     -0.111026
  H       2.797335      1.576006     -0.275105
  H      -0.574585      2.599578     -0.180982
17
Coordinates from ORCA-job optfreq E -421.912239597245
  C      -2.657853     -0.160593      0.153499
  O      -1.576162      0.755107      0.020870
  C      -0.305750      0.234588     -0.003577
  C       0.024073     -1.111427      0.088505
  C       1.366520     -1.496823      0.049310
  C       2.364026     -0.540525     -0.080705
  C       2.033787      0.810856     -0.173081
  C       0.705029      1.203144     -0.135226
  O       0.388447      2.525682     -0.225923
  H      -2.590805     -0.717825      1.097191
  H      -3.567059      0.442733      0.151376
  H      -2.684790     -0.865570     -0.687825
  H      -0.748917     -1.864866      0.190715
  H       1.619858     -2.549564      0.121803
  H       3.407064     -0.839328     -0.111024
  H       2.797389      1.575720     -0.275066
  H      -0.574858      2.598690     -0.180840
17
Coordinates from ORCA-job optfreq E -421.912239765092
  C      -2.657939     -0.160741      0.153548
  O      -1.576273      0.755105      0.020789
  C      -0.305818      0.234574     -0.003636
  C       0.024110     -1.111338      0.088434
  C       1.366462     -1.496671      0.049279
  C       2.363963     -0.540517     -0.080678
  C       2.033809      0.810849     -0.173052
  C       0.705065      1.203088     -0.135245
  O       0.388262      2.525581     -0.225914
  H      -2.590518     -0.717645      1.097386
  H      -3.566899      0.442950      0.151365
  H      -2.684596     -0.865566     -0.687891
  H      -0.748872     -1.864835      0.190610
  H       1.619783     -2.549436      0.121771
  H       3.406997     -0.839385     -0.110958
  H       2.797524      1.575606     -0.274992
  H      -0.575062      2.598380     -0.180815
