17
 energy: -27.187138220283 gnorm: 0.000146169052 xtb: 6.7.1pre (5071a88)
C           -2.65497223994663       -0.15779324871550        0.15286079862514
O           -1.58538183893403        0.74329423282013        0.02311791225042
C           -0.30482384128056        0.23163958576456       -0.00277560901256
C            0.03320747922463       -1.10621408924002        0.08827933241163
C            1.36754445757676       -1.48730372946985        0.04892330989804
C            2.36189794912754       -0.53858301963186       -0.08073007453024
C            2.03277570199696        0.80409579120579       -0.17264743580343
C            0.70686201431081        1.19841892698998       -0.13481264982334
O            0.38629914081787        2.51607569944317       -0.22514496430686
H           -2.59674614870997       -0.71537840130007        1.09302879302059
H           -3.55727486357304        0.45212430269435        0.15080694548069
H           -2.69056476101183       -0.86016282342000       -0.68595829091207
H           -0.73010357770086       -1.86148515804368        0.19000382486553
H            1.61858503831889       -2.53452137645371        0.12091234855362
H            3.39820885815109       -0.83768553120604       -0.11104120709270
H            2.79123244410165        1.56351284161194       -0.27445321983518
H           -0.57674581246928        2.58996599695082       -0.18036881378927
