20
Coordinates from ORCA-job optfreq E -572.577303496466
  C          -1.22039477183494     -0.11637033586031     -1.31896419222862
  C          -1.21805996662520      0.87406941235209     -0.15940724423283
  C          -0.33048016318178      0.34035110021862      0.95433463893991
  C           1.05249313096397      0.01373532431041      0.41586763168257
  C           0.92059485000093     -0.93404473343092     -0.77214392702201
  O           0.11222248960758     -0.34277171389208     -1.78182867305221
  O           2.20417110587106     -1.13608430983318     -1.28528530871939
  O           1.78581913965011     -0.57569485281958      1.48681418690799
  O          -0.28517631437045      1.33139971391602      1.97755244106759
  O          -2.56213002825453      1.03054231400458      0.27392551047515
  H          -1.78538338001045      0.28330659083961     -2.16459453540040
  H          -1.69350556641522     -1.05944018121188     -0.99555916707743
  H          -0.80276227049753      1.83553270865476     -0.50816359389308
  H          -0.78296936819532     -0.58969465441841      1.34595242246571
  H           1.54001383910027      0.93618528519833      0.05802208301596
  H           0.45962998227374     -1.88944557080298     -0.44544617380807
  H           2.15265231334978     -1.79275542231156     -1.98995206425470
  H           2.67297951403087     -0.76625114060262      1.15912397191848
  H           0.31553103221964      1.00975219473754      2.66103795572831
  H          -2.53524456768253      1.54768027095157      1.08871503748707
