20
Coordinates from ORCA-job optfreq E -572.573291580631
  C      -1.198710     -0.158047     -1.315872
  C      -1.216262      0.864555     -0.175738
  C      -0.350026      0.346391      0.980013
  C       1.045458      0.003291      0.456259
  C       0.918980     -0.976123     -0.722385
  O       0.112110     -0.449175     -1.741138
  O       2.187785     -1.203073     -1.240514
  O       1.789548     -0.556442      1.509234
  O      -0.303729      1.339459      1.975092
  O      -2.544035      1.055767      0.229925
  H      -1.720324      0.238018     -2.186819
  H      -1.706307     -1.071623     -0.975851
  H      -0.779822      1.813304     -0.526967
  H      -0.803557     -0.571914      1.389392
  H       1.531357      0.918981      0.083545
  H       0.477632     -1.926758     -0.348218
  H       2.089284     -1.399477     -2.179357
  H       2.604436     -0.911958      1.134662
  H       0.383894      1.084050      2.601827
  H      -2.517710      1.560774      1.052910
20
Coordinates from ORCA-job optfreq E -572.575147923689
  C      -1.207850     -0.148431     -1.314779
  C      -1.207054      0.866757     -0.172300
  C      -0.342372      0.335266      0.968884
  C       1.048024      0.007323      0.441445
  C       0.916967     -0.977306     -0.722914
  O       0.114048     -0.436082     -1.748209
  O       2.195933     -1.217341     -1.234184
  O       1.802295     -0.539598      1.509640
  O      -0.309330      1.323351      1.986139
  O      -2.546000      1.061563      0.234757
  H      -1.740410      0.254650     -2.179841
  H      -1.720273     -1.065274     -0.975457
  H      -0.760252      1.813688     -0.525344
  H      -0.798309     -0.595450      1.356304
  H       1.518956      0.928369      0.054078
  H       0.460450     -1.920169     -0.345909
  H       2.101737     -1.455846     -2.164582
  H       2.637456     -0.860017      1.146897
  H       0.359150      1.056335      2.629285
  H      -2.523168      1.568215      1.056092
20
Coordinates from ORCA-job optfreq E -572.575932892615
  C      -1.210923     -0.137869     -1.315466
  C      -1.201101      0.867474     -0.167674
  C      -0.334190      0.331392      0.961167
  C       1.050644      0.009528      0.430748
  C       0.913647     -0.973568     -0.726202
  O       0.121913     -0.409472     -1.756735
  O       2.197839     -1.222742     -1.233736
  O       1.803036     -0.537151      1.510849
  O      -0.305362      1.321611      1.986781
  O      -2.548792      1.051169      0.242588
  H      -1.752787      0.267620     -2.174006
  H      -1.716359     -1.061942     -0.983989
  H      -0.760246      1.817185     -0.520810
  H      -0.793418     -0.600889      1.342521
  H       1.520268      0.930026      0.041059
  H       0.442628     -1.911579     -0.360445
  H       2.101265     -1.526307     -2.145008
  H       2.659014     -0.812873      1.160395
  H       0.341561      1.038932      2.645043
  H      -2.528634      1.559459      1.062921
20
Coordinates from ORCA-job optfreq E -572.576390109479
  C      -1.212067     -0.129504     -1.317236
  C      -1.202122      0.868150     -0.164194
  C      -0.329127      0.333497      0.957305
  C       1.053257      0.009218      0.425311
  C       0.913035     -0.966068     -0.734526
  O       0.128339     -0.380744     -1.764812
  O       2.199139     -1.215851     -1.240409
  O       1.797638     -0.547650      1.510988
  O      -0.296219      1.328528      1.982295
  O      -2.553858      1.037464      0.252331
  H      -1.761727      0.274396     -2.171259
  H      -1.704032     -1.062809     -0.993783
  H      -0.774126      1.823007     -0.517018
  H      -0.790241     -0.595269      1.343489
  H       1.530855      0.927186      0.042350
  H       0.433028     -1.904194     -0.385648
  H       2.099336     -1.598347     -2.121194
  H       2.671344     -0.779626      1.172879
  H       0.331043      1.029484      2.652379
  H      -2.533493      1.549134      1.070754
20
Coordinates from ORCA-job optfreq E -572.576836264503
  C      -1.214342     -0.122365     -1.318852
  C      -1.207917      0.869257     -0.161503
  C      -0.326249      0.338266      0.954520
  C       1.055305      0.007531      0.421292
  C       0.914823     -0.954457     -0.749192
  O       0.130063     -0.350646     -1.773647
  O       2.200789     -1.193772     -1.255616
  O       1.787801     -0.566992      1.507851
  O      -0.283705      1.337919      1.975149
  O      -2.559610      1.025122      0.265193
  H      -1.772417      0.277207     -2.168908
  H      -1.688270     -1.066029     -1.001712
  H      -0.794830      1.829677     -0.514202
  H      -0.787090     -0.585780      1.349889
  H       1.545382      0.922712      0.050999
  H       0.431909     -1.897232     -0.420617
  H       2.103709     -1.682183     -2.082670
  H       2.678524     -0.751525      1.185848
  H       0.321866      1.020089      2.656508
  H      -2.535740      1.543204      1.079673
20
Coordinates from ORCA-job optfreq E -572.577127105547
  C      -1.218459     -0.118550     -1.319031
  C      -1.215538      0.870877     -0.160223
  C      -0.326533      0.342426      0.952948
  C       1.055383      0.005665      0.418440
  C       0.918308     -0.943013     -0.765675
  O       0.123644     -0.333051     -1.780421
  O       2.202066     -1.162786     -1.276178
  O       1.778231     -0.585885      1.500646
  O      -0.274333      1.342942      1.969712
  O      -2.563170      1.021720      0.276292
  H      -1.783035      0.276819     -2.166451
  H      -1.679459     -1.068448     -1.002493
  H      -0.810398      1.834191     -0.513018
  H      -0.784486     -0.579705      1.354829
  H       1.554888      0.920143      0.060573
  H       0.441572     -1.893418     -0.450606
  H       2.120563     -1.750822     -2.037212
  H       2.679920     -0.737526      1.193210
  H       0.315079      1.011522      2.658601
  H      -2.534242      1.546903      1.086059
20
Coordinates from ORCA-job optfreq E -572.577237919711
  C      -1.220509     -0.118843     -1.318109
  C      -1.218749      0.872102     -0.160341
  C      -0.328767      0.342970      0.953441
  C       1.053974      0.005785      0.418253
  C       0.920809     -0.938947     -0.771967
  O       0.116328     -0.336128     -1.781142
  O       2.202568     -1.145894     -1.286886
  O       1.776100     -0.590223      1.495446
  O      -0.275249      1.340697      1.970324
  O      -2.562878      1.026745      0.277857
  H      -1.785965      0.276072     -2.165289
  H      -1.682697     -1.067399     -0.997598
  H      -0.810270      1.834515     -0.512782
  H      -0.783975     -0.581373      1.353957
  H       1.553073      0.922360      0.063818
  H       0.452807     -1.893827     -0.455432
  H       2.134432     -1.769863     -2.019641
  H       2.678333     -0.741590      1.189999
  H       0.313050      1.009057      2.659868
  H      -2.532416      1.553784      1.086226
20
Coordinates from ORCA-job optfreq E -572.577279778725
  C      -1.221294     -0.119079     -1.317681
  C      -1.218987      0.873003     -0.160392
  C      -0.330181      0.341538      0.953815
  C       1.052857      0.007486      0.417729
  C       0.921565     -0.937411     -0.773394
  O       0.111442     -0.342719     -1.780570
  O       2.202777     -1.137716     -1.290278
  O       1.777880     -0.587335      1.491438
  O      -0.279276      1.335850      1.972898
  O      -2.561527      1.031561      0.276147
  H      -1.786307      0.277615     -2.164620
  H      -1.689651     -1.064156     -0.993591
  H      -0.804705      1.833891     -0.511773
  H      -0.783623     -0.586084      1.349870
  H       1.547460      0.926952      0.062541
  H       0.459775     -1.893896     -0.450768
  H       2.143951     -1.776394     -2.010796
  H       2.677332     -0.748010      1.182564
  H       0.312385      1.008034      2.661303
  H      -2.531873      1.556870      1.085559
20
Coordinates from ORCA-job optfreq E -572.577291471889
  C      -1.221389     -0.118422     -1.318035
  C      -1.218284      0.873449     -0.160126
  C      -0.330283      0.340361      0.953801
  C       1.052674      0.009290      0.416838
  C       0.921231     -0.936719     -0.773162
  O       0.110248     -0.345213     -1.780742
  O       2.202981     -1.136029     -1.289608
  O       1.780381     -0.583521      1.489366
  O      -0.281859      1.332921      1.974728
  O      -2.560978      1.032657      0.274817
  H      -1.786287      0.280005     -2.164380
  H      -1.693824     -1.061456     -0.993039
  H      -0.801485      1.833840     -0.510486
  H      -0.783253     -0.588898      1.347027
  H       1.543896      0.930341      0.060371
  H       0.461146     -1.892959     -0.446968
  H       2.148096     -1.780990     -2.004788
  H       2.677071     -0.751780      1.176366
  H       0.312514      1.007801      2.662057
  H      -2.532596      1.555324      1.085963
20
Coordinates from ORCA-job optfreq E -572.577298077604
  C      -1.221092     -0.117381     -1.318653
  C      -1.217649      0.873806     -0.159735
  C      -0.330142      0.339694      0.953877
  C       1.052734      0.011295      0.416013
  C       0.920719     -0.935916     -0.772666
  O       0.110494     -0.345641     -1.781298
  O       2.203294     -1.136142     -1.287907
  O       1.783135     -0.579601      1.487815
  O      -0.283881      1.331150      1.976325
  O      -2.561009      1.032160      0.273838
  H      -1.786011      0.282468     -2.164352
  H      -1.696066     -1.059274     -0.993872
  H      -0.800172      1.834315     -0.509059
  H      -0.782975     -0.590412      1.345344
  H       1.541348      0.933394      0.058515
  H       0.460787     -1.891500     -0.444502
  H       2.150671     -1.786371     -1.998472
  H       2.676457     -0.756083      1.169519
  H       0.313267      1.008235      2.662285
  H      -2.533907      1.551807      1.086984
20
Coordinates from ORCA-job optfreq E -572.577301417794
  C      -1.220683     -0.116596     -1.319055
  C      -1.217522      0.874020     -0.159467
  C      -0.330129      0.339715      0.954059
  C       1.052752      0.012782      0.415652
  C       0.920439     -0.935062     -0.772336
  O       0.111312     -0.344650     -1.781776
  O       2.203633     -1.136505     -1.286441
  O       1.784993     -0.577070      1.486968
  O      -0.284923      1.330732      1.977259
  O      -2.561434      1.031188      0.273508
  H      -1.785674      0.283743     -2.164442
  H      -1.695932     -1.058488     -0.994932
  H      -0.800738      1.834975     -0.508182
  H      -0.782892     -0.590538      1.345094
  H       1.540219      0.935291      0.057773
  H       0.460023     -1.890261     -0.444069
  H       2.151913     -1.790612     -1.993492
  H       2.675307     -0.760410      1.163937
  H       0.314278      1.008927      2.661964
  H      -2.534942      1.548823      1.087981
20
Coordinates from ORCA-job optfreq E -572.577303077408
  C      -1.220389     -0.116259     -1.319129
  C      -1.217777      0.874104     -0.159368
  C      -0.330302      0.340088      0.954261
  C       1.052634      0.013646      0.415683
  C       0.920439     -0.934312     -0.772168
  O       0.112053     -0.343329     -1.781955
  O       2.203979     -1.136469     -1.285480
  O       1.785881     -0.575793      1.486677
  O      -0.285279      1.331040      1.977636
  O      -2.561931      1.030521      0.273640
  H      -1.785412      0.283849     -2.164556
  H      -1.694530     -1.058800     -0.995586
  H      -0.802046      1.835478     -0.507932
  H      -0.782928     -0.590039      1.345565
  H       1.539916      0.936198      0.057784
  H       0.459555     -1.889503     -0.444766
  H       2.152492     -1.792894     -1.990383
  H       2.673833     -0.764431      1.160062
  H       0.315218      1.009559      2.661376
  H      -2.535405      1.547346      1.088643
20
Coordinates from ORCA-job optfreq E -572.577303496466
  C      -1.220395     -0.116370     -1.318964
  C      -1.218060      0.874069     -0.159407
  C      -0.330480      0.340351      0.954335
  C       1.052493      0.013735      0.415868
  C       0.920595     -0.934045     -0.772144
  O       0.112222     -0.342772     -1.781829
  O       2.204171     -1.136084     -1.285285
  O       1.785819     -0.575695      1.486814
  O      -0.285176      1.331400      1.977552
  O      -2.562130      1.030542      0.273926
  H      -1.785383      0.283307     -2.164595
  H      -1.693506     -1.059440     -0.995559
  H      -0.802762      1.835533     -0.508164
  H      -0.782969     -0.589695      1.345952
  H       1.540014      0.936185      0.058022
  H       0.459630     -1.889446     -0.445446
  H       2.152652     -1.792755     -1.989952
  H       2.672980     -0.766251      1.159124
  H       0.315531      1.009752      2.661038
  H      -2.535245      1.547680      1.088715
